13
Converted from SDF
C  3.37370000  1.70050000  1.08720000
C  2.12830000  0.99760000  1.63120000
C  0.85020000  1.82260000  1.45510000
N  4.55940000  0.84840000  1.24120000
H  3.23960000  1.89060000  0.01400000
H  3.46690000  2.69210000  1.57010000
H  2.03150000  0.02760000  1.12830000
H  2.27850000  0.77810000  2.69890000
H  0.65380000  2.02870000  0.39560000
H -0.02200000  1.29550000  1.85730000
H  0.92210000  2.78790000  1.97160000
H  5.37350000  1.31530000  0.84410000
H  4.76370000  0.73010000  2.23340000
