created by fftool

29 atoms
32 bonds
52 angles
99 dihedrals
7 atom types
8 bond types
13 angle types
29 dihedral types
0.000000 30.000000 xlo xhi
0.000000 30.000000 ylo yhi
0.000000 30.000000 zlo zhi

Masses

   1   12.011  # CB
   2   12.011  # CA
   3   12.011  # C
   4   15.999  # O_3
   5   15.999  # OH
   6    1.008  # HA
   7    1.008  # HO

Bond Coeffs

   1   468.999761     1.400000  # CA-CB
   2   468.999761     1.400000  # CB-CB
   3   400.000000     1.490000  # C-CB
   4   468.999761     1.400000  # CA-CA
   5   367.000478     1.080000  # CA-HA
   6   570.000000     1.229000  # C-O_3
   7   450.000000     1.364000  # C-OH
   8   552.999522     0.945000  # OH-HO

Angle Coeffs

   1    63.000000   120.000000  # CA-CB-CB
   2    85.000000   120.000000  # CA-CB-C
   3    85.000000   120.000000  # CB-CB-C
   4    63.000000   120.000000  # CB-CA-CA
   5    35.000000   120.000000  # CB-CA-HA
   6    35.000000   120.000000  # CA-CA-HA
   7    63.000000   120.000000  # CA-CB-CA
   8    63.000000   120.000000  # CA-CA-CA
   9    63.000000   120.000000  # CB-CB-CB
  10    80.000000   120.400000  # CB-C-O_3
  11    70.000000   120.000000  # CB-C-OH
  12    80.000000   121.000000  # O_3-C-OH
  13    35.000000   113.000000  # C-OH-HO

Dihedral Coeffs

   1     0.000000     7.250000     0.000000     0.000000  # CB-CB-CA-CA
   2     0.000000     7.250000     0.000000     0.000000  # CB-CB-CA-HA
   3     0.000000     7.250000     0.000000     0.000000  # C-CB-CA-CA
   4     0.000000     7.250000     0.000000     0.000000  # C-CB-CA-HA
   5     0.000000     7.250000     0.000000     0.000000  # CA-CB-CB-CA
   6     0.000000     7.250000     0.000000     0.000000  # CB-CB-CB-CA
   7     0.000000     7.250000     0.000000     0.000000  # C-CB-CB-CA
   8     0.000000     7.250000     0.000000     0.000000  # C-CB-CB-CB
   9     0.000000     2.100000     0.000000     0.000000  # CA-CB-C-O_3
  10     0.000000     2.099904     0.000000     0.000000  # CA-CB-C-OH
  11     0.000000     2.100000     0.000000     0.000000  # CB-CB-C-O_3
  12     0.000000     2.099904     0.000000     0.000000  # CB-CB-C-OH
  13     0.000000     7.250000     0.000000     0.000000  # CB-CA-CA-CB
  14     0.000000     7.250000     0.000000     0.000000  # CB-CA-CA-HA
  15     0.000000     7.250000     0.000000     0.000000  # HA-CA-CA-HA
  16     0.000000     7.250000     0.000000     0.000000  # CA-CA-CB-CA
  17     0.000000     7.250000     0.000000     0.000000  # CA-CB-CA-HA
  18     0.000000     7.250000     0.000000     0.000000  # CB-CA-CA-CA
  19     0.000000     7.250000     0.000000     0.000000  # CA-CA-CA-HA
  20     0.000000     7.250000     0.000000     0.000000  # CB-CB-CB-CB
  21     4.000000     5.000000     0.000000     0.000000  # HO-OH-C-CB
  22     0.000000     5.500000     0.000000     0.000000  # HO-OH-C-O_3
  23    43.021033     1.099904     0.000000     0.000000  # CA-CB-CB-C
  24    43.021033     1.099904     0.000000     0.000000  # CB-CA-CA-HA
  25    43.021033     1.099904     0.000000     0.000000  # CA-CA-CB-CB
  26    43.021033     1.099904     0.000000     0.000000  # CA-CA-CA-HA
  27    43.021033     1.099904     0.000000     0.000000  # CB-CA-CB-CB
  28    43.021033     1.099904     0.000000     0.000000  # CB-CB-CB-CB
  29    43.021033    10.499522     0.000000     0.000000  # CB-O_3-C-OH

Atoms

      1       1    1   0.000000  3.606909e+00  4.061221e+00  2.833982e+00  # CB chromophore
      2       1    2  -0.115000  3.734404e+00  2.801402e+00  3.449414e+00  # CA chromophore
      3       1    2  -0.115000  4.833235e+00  2.491710e+00  4.249296e+00  # CA chromophore
      4       1    1   0.000000  5.842546e+00  3.424916e+00  4.464139e+00  # CB chromophore
      5       1    2  -0.115000  6.937596e+00  3.091818e+00  5.271801e+00  # CA chromophore
      6       1    2  -0.115000  7.960377e+00  4.008847e+00  5.501808e+00  # CA chromophore
      7       1    1   0.000000  7.911197e+00  5.281127e+00  4.928686e+00  # CB chromophore
      8       1    2  -0.115000  8.938441e+00  6.208920e+00  5.156772e+00  # CA chromophore
      9       1    2  -0.115000  8.888369e+00  7.477343e+00  4.584667e+00  # CA chromophore
     10       1    2  -0.115000  7.810163e+00  7.831157e+00  3.778321e+00  # CA chromophore
     11       1    1   0.000000  6.770955e+00  6.920254e+00  3.535807e+00  # CB chromophore
     12       1    2  -0.115000  5.690173e+00  7.265905e+00  2.731480e+00  # CA chromophore
     13       1    2  -0.115000  4.657267e+00  6.352968e+00  2.493639e+00  # CA chromophore
     14       1    1   0.000000  4.639052e+00  5.044326e+00  3.041372e+00  # CB chromophore
     15       1    1   0.000000  5.754537e+00  4.703701e+00  3.864626e+00  # CB chromophore
     16       1    1   0.000000  6.809348e+00  5.632598e+00  4.108988e+00  # CB chromophore
     17       1    3   0.520000  2.395648e+00  4.360456e+00  1.970319e+00  # C chromophore
     18       1    4  -0.440000  2.201127e+00  5.420814e+00  1.400098e+00  # O_3 chromophore
     19       1    5  -0.530000  1.478790e+00  3.376309e+00  1.832604e+00  # OH chromophore
     20       1    6   0.115000  3.004821e+00  2.009096e+00  3.344565e+00  # HA chromophore
     21       1    6   0.115000  4.889524e+00  1.504292e+00  4.705150e+00  # HA chromophore
     22       1    6   0.115000  7.007849e+00  2.109148e+00  5.734088e+00  # HA chromophore
     23       1    6   0.115000  8.796387e+00  3.718121e+00  6.134032e+00  # HA chromophore
     24       1    6   0.115000  9.788392e+00  5.949434e+00  5.784132e+00  # HA chromophore
     25       1    6   0.115000  9.688638e+00  8.189705e+00  4.766770e+00  # HA chromophore
     26       1    6   0.115000  7.785368e+00  8.825890e+00  3.338479e+00  # HA chromophore
     27       1    6   0.115000  5.629687e+00  8.251361e+00  2.273926e+00  # HA chromophore
     28       1    6   0.115000  3.857040e+00  6.713666e+00  1.853338e+00  # HA chromophore
     29       1    7   0.450000  1.610628e+00  2.526610e+00  2.274491e+00  # HO chromophore

Bonds

      1    1       1       2  # CA-CB
      2    2       1      14  # CB-CB
      3    3       1      17  # C-CB
      4    4       2       3  # CA-CA
      5    5       2      20  # CA-HA
      6    1       3       4  # CA-CB
      7    5       3      21  # CA-HA
      8    1       4       5  # CA-CB
      9    2       4      15  # CB-CB
     10    4       5       6  # CA-CA
     11    5       5      22  # CA-HA
     12    1       6       7  # CA-CB
     13    5       6      23  # CA-HA
     14    1       7       8  # CA-CB
     15    2       7      16  # CB-CB
     16    4       8       9  # CA-CA
     17    5       8      24  # CA-HA
     18    4       9      10  # CA-CA
     19    5       9      25  # CA-HA
     20    1      10      11  # CA-CB
     21    5      10      26  # CA-HA
     22    1      11      12  # CA-CB
     23    2      11      16  # CB-CB
     24    4      12      13  # CA-CA
     25    5      12      27  # CA-HA
     26    1      13      14  # CA-CB
     27    5      13      28  # CA-HA
     28    2      14      15  # CB-CB
     29    2      15      16  # CB-CB
     30    6      17      18  # C-O_3
     31    7      17      19  # C-OH
     32    8      19      29  # OH-HO

Angles

      1    1       2       1      14  # CA-CB-CB
      2    2       2       1      17  # CA-CB-C
      3    3      14       1      17  # CB-CB-C
      4    4       1       2       3  # CB-CA-CA
      5    5       1       2      20  # CB-CA-HA
      6    6       3       2      20  # CA-CA-HA
      7    4       2       3       4  # CB-CA-CA
      8    6       2       3      21  # CA-CA-HA
      9    5       4       3      21  # CB-CA-HA
     10    7       3       4       5  # CA-CB-CA
     11    1       3       4      15  # CA-CB-CB
     12    1       5       4      15  # CA-CB-CB
     13    4       4       5       6  # CB-CA-CA
     14    5       4       5      22  # CB-CA-HA
     15    6       6       5      22  # CA-CA-HA
     16    4       5       6       7  # CB-CA-CA
     17    6       5       6      23  # CA-CA-HA
     18    5       7       6      23  # CB-CA-HA
     19    7       6       7       8  # CA-CB-CA
     20    1       6       7      16  # CA-CB-CB
     21    1       8       7      16  # CA-CB-CB
     22    4       7       8       9  # CB-CA-CA
     23    5       7       8      24  # CB-CA-HA
     24    6       9       8      24  # CA-CA-HA
     25    8       8       9      10  # CA-CA-CA
     26    6       8       9      25  # CA-CA-HA
     27    6      10       9      25  # CA-CA-HA
     28    4       9      10      11  # CB-CA-CA
     29    6       9      10      26  # CA-CA-HA
     30    5      11      10      26  # CB-CA-HA
     31    7      10      11      12  # CA-CB-CA
     32    1      10      11      16  # CA-CB-CB
     33    1      12      11      16  # CA-CB-CB
     34    4      11      12      13  # CB-CA-CA
     35    5      11      12      27  # CB-CA-HA
     36    6      13      12      27  # CA-CA-HA
     37    4      12      13      14  # CB-CA-CA
     38    6      12      13      28  # CA-CA-HA
     39    5      14      13      28  # CB-CA-HA
     40    1       1      14      13  # CA-CB-CB
     41    9       1      14      15  # CB-CB-CB
     42    1      13      14      15  # CA-CB-CB
     43    9       4      15      14  # CB-CB-CB
     44    9       4      15      16  # CB-CB-CB
     45    9      14      15      16  # CB-CB-CB
     46    9       7      16      11  # CB-CB-CB
     47    9       7      16      15  # CB-CB-CB
     48    9      11      16      15  # CB-CB-CB
     49   10       1      17      18  # CB-C-O_3
     50   11       1      17      19  # CB-C-OH
     51   12      18      17      19  # O_3-C-OH
     52   13      17      19      29  # C-OH-HO

Dihedrals

      1    1      14       1       2       3  # CB-CB-CA-CA
      2    2      14       1       2      20  # CB-CB-CA-HA
      3    3      17       1       2       3  # C-CB-CA-CA
      4    4      17       1       2      20  # C-CB-CA-HA
      5    5       2       1      14      13  # CA-CB-CB-CA
      6    6       2       1      14      15  # CB-CB-CB-CA
      7    7      17       1      14      13  # C-CB-CB-CA
      8    8      17       1      14      15  # C-CB-CB-CB
      9    9       2       1      17      18  # CA-CB-C-O_3
     10   10       2       1      17      19  # CA-CB-C-OH
     11   11      14       1      17      18  # CB-CB-C-O_3
     12   12      14       1      17      19  # CB-CB-C-OH
     13   13       1       2       3       4  # CB-CA-CA-CB
     14   14       1       2       3      21  # CB-CA-CA-HA
     15   14      20       2       3       4  # CB-CA-CA-HA
     16   15      20       2       3      21  # HA-CA-CA-HA
     17   16       2       3       4       5  # CA-CA-CB-CA
     18    1       2       3       4      15  # CB-CB-CA-CA
     19   17      21       3       4       5  # CA-CB-CA-HA
     20    2      21       3       4      15  # CB-CB-CA-HA
     21   16       3       4       5       6  # CA-CA-CB-CA
     22   17       3       4       5      22  # CA-CB-CA-HA
     23    1      15       4       5       6  # CB-CB-CA-CA
     24    2      15       4       5      22  # CB-CB-CA-HA
     25    6       3       4      15      14  # CB-CB-CB-CA
     26    6       3       4      15      16  # CB-CB-CB-CA
     27    6       5       4      15      14  # CB-CB-CB-CA
     28    6       5       4      15      16  # CB-CB-CB-CA
     29   13       4       5       6       7  # CB-CA-CA-CB
     30   14       4       5       6      23  # CB-CA-CA-HA
     31   14      22       5       6       7  # CB-CA-CA-HA
     32   15      22       5       6      23  # HA-CA-CA-HA
     33   16       5       6       7       8  # CA-CA-CB-CA
     34    1       5       6       7      16  # CB-CB-CA-CA
     35   17      23       6       7       8  # CA-CB-CA-HA
     36    2      23       6       7      16  # CB-CB-CA-HA
     37   16       6       7       8       9  # CA-CA-CB-CA
     38   17       6       7       8      24  # CA-CB-CA-HA
     39    1      16       7       8       9  # CB-CB-CA-CA
     40    2      16       7       8      24  # CB-CB-CA-HA
     41    6       6       7      16      11  # CB-CB-CB-CA
     42    6       6       7      16      15  # CB-CB-CB-CA
     43    6       8       7      16      11  # CB-CB-CB-CA
     44    6       8       7      16      15  # CB-CB-CB-CA
     45   18       7       8       9      10  # CB-CA-CA-CA
     46   14       7       8       9      25  # CB-CA-CA-HA
     47   19      24       8       9      10  # CA-CA-CA-HA
     48   15      24       8       9      25  # HA-CA-CA-HA
     49   18       8       9      10      11  # CB-CA-CA-CA
     50   19       8       9      10      26  # CA-CA-CA-HA
     51   14      25       9      10      11  # CB-CA-CA-HA
     52   15      25       9      10      26  # HA-CA-CA-HA
     53   16       9      10      11      12  # CA-CA-CB-CA
     54    1       9      10      11      16  # CB-CB-CA-CA
     55   17      26      10      11      12  # CA-CB-CA-HA
     56    2      26      10      11      16  # CB-CB-CA-HA
     57   16      10      11      12      13  # CA-CA-CB-CA
     58   17      10      11      12      27  # CA-CB-CA-HA
     59    1      16      11      12      13  # CB-CB-CA-CA
     60    2      16      11      12      27  # CB-CB-CA-HA
     61    6      10      11      16       7  # CB-CB-CB-CA
     62    6      10      11      16      15  # CB-CB-CB-CA
     63    6      12      11      16       7  # CB-CB-CB-CA
     64    6      12      11      16      15  # CB-CB-CB-CA
     65   13      11      12      13      14  # CB-CA-CA-CB
     66   14      11      12      13      28  # CB-CA-CA-HA
     67   14      27      12      13      14  # CB-CA-CA-HA
     68   15      27      12      13      28  # HA-CA-CA-HA
     69    1      12      13      14       1  # CB-CB-CA-CA
     70    1      12      13      14      15  # CB-CB-CA-CA
     71    2      28      13      14       1  # CB-CB-CA-HA
     72    2      28      13      14      15  # CB-CB-CA-HA
     73   20       1      14      15       4  # CB-CB-CB-CB
     74   20       1      14      15      16  # CB-CB-CB-CB
     75    6      13      14      15       4  # CB-CB-CB-CA
     76    6      13      14      15      16  # CB-CB-CB-CA
     77   20       4      15      16       7  # CB-CB-CB-CB
     78   20       4      15      16      11  # CB-CB-CB-CB
     79   20      14      15      16       7  # CB-CB-CB-CB
     80   20      14      15      16      11  # CB-CB-CB-CB
     81   21       1      17      19      29  # HO-OH-C-CB
     82   22      18      17      19      29  # HO-OH-C-O_3
     83   23       2      14       1      17  # CA-CB-CB-C
     84   24       1       3       2      20  # CB-CA-CA-HA
     85   24       4       2       3      21  # CB-CA-CA-HA
     86   25       3       5       4      15  # CA-CA-CB-CB
     87   24       4       6       5      22  # CB-CA-CA-HA
     88   24       7       5       6      23  # CB-CA-CA-HA
     89   25       6       8       7      16  # CA-CA-CB-CB
     90   24       7       9       8      24  # CB-CA-CA-HA
     91   26       8      10       9      25  # CA-CA-CA-HA
     92   24      11       9      10      26  # CB-CA-CA-HA
     93   25      10      12      11      16  # CA-CA-CB-CB
     94   24      11      13      12      27  # CB-CA-CA-HA
     95   24      14      12      13      28  # CB-CA-CA-HA
     96   27       1      13      14      15  # CB-CA-CB-CB
     97   28       4      14      15      16  # CB-CB-CB-CB
     98   28       7      11      16      15  # CB-CB-CB-CB
     99   29       1      18      17      19  # CB-O_3-C-OH
