29

C          2.89247       -1.23662        0.00003
C          3.53755        0.01479        0.00023
C          2.81275        1.20551        0.00032
C          1.42151        1.19168        0.00029
C          0.71377        2.40061        0.00045
C         -0.67899        2.41268        0.00048
C         -1.39631        1.21475        0.00032
C         -2.79917        1.22070        0.00032
C         -3.51344        0.02549        0.00009
C         -2.83197       -1.18839       -0.00013
C         -1.42928       -1.21957       -0.00009
C         -0.74083       -2.42810       -0.00023
C          0.65786       -2.45223       -0.00021
C          1.45261       -1.27696       -0.00002
C          0.73245       -0.04430        0.00011
C         -0.69388       -0.01655        0.00011
C          3.71653       -2.51080       -0.00001
O          3.24563       -3.63579        0.00043
O          5.06174       -2.37461       -0.00061
H          4.61333        0.13198        0.00041
H          3.35446        2.15024        0.00048
H          1.24110        3.35256        0.00059
H         -1.19762        3.36880        0.00066
H         -3.34795        2.15994        0.00050
H         -4.60011        0.03959        0.00006
H         -3.40410       -2.11372       -0.00029
H         -1.27790       -3.37451       -0.00038
H          1.10518       -3.44236       -0.00035
H          5.45905       -1.49326       -0.00132
