14
Cu4
Cu    0.000000    0.000000    0.000000
Cu    0.000000    0.000000    3.577431
Cu    0.000000    3.577431    0.000000
Cu    0.000000    3.577431    3.577431
Cu    3.577431    0.000000    0.000000
Cu    3.577431    0.000000    3.577431
Cu    3.577431    3.577431    0.000000
Cu    3.577431    3.577431    3.577431
Cu    0.000000    1.788715    1.788715
Cu    3.577431    1.788715    1.788715
Cu    1.788715    0.000000    1.788715
Cu    1.788715    3.577431    1.788715
Cu    1.788715    1.788715    0.000000
Cu    1.788715    1.788715    3.577431
