
19488 atoms

2 atom types

0.051285 101.642041 xlo xhi
-25.277976 76.287154 ylo yhi
0.000000 206.011658 zlo zhi

Masses

1 28.0855
2 15.9994

Atoms

1       1 1 0.0 78.194912 54.722707 19.526926
2       1 1 0.0 69.778569 60.910213 17.216694
3       1 1 0.0 78.559644 55.233495 15.871330
4       1 1 0.0 73.732560 58.896544 17.089860
5       1 2 0.0 76.632378 55.705647 18.665965
6       1 2 0.0 72.602350 59.750022 15.715849
7       1 2 0.0 73.206461 58.363261 13.047970
8       1 2 0.0 76.265934 57.160279 15.735269
9       1 2 0.0 73.518818 58.893609 19.725074
10      1 2 0.0 78.807719 54.647554 17.942714
11      1 2 0.0 72.064588 59.730953 17.575231
12      1 2 0.0 70.002399 60.778255 14.569376
13      1 1 0.0 83.866873 48.140009 26.625506
14      1 1 0.0 76.981880 55.996022 24.315274
15      1 1 0.0 84.333121 48.560186 22.969910
16      1 1 0.0 80.408953 53.177499 24.188440
17      1 2 0.0 82.552907 49.436612 25.764545
18      1 2 0.0 79.489249 54.254506 22.814429
19      1 2 0.0 79.780284 52.770135 20.146550
20      1 2 0.0 82.508583 50.936037 22.833849
21      1 2 0.0 80.199602 53.220699 26.823654
22      1 2 0.0 84.449081 47.934548 25.041294
23      1 2 0.0 78.960016 54.351785 24.673811
24      1 2 0.0 77.172010 55.818925 21.667956
25      1 1 0.0 87.986807 40.489573 33.724086
26      1 1 0.0 82.956779 49.644837 31.413854
27      1 1 0.0 88.532655 40.799387 30.068490
28      1 1 0.0 85.695852 46.153938 31.287020
29      1 2 0.0 86.983170 42.038894 32.863125
30      1 2 0.0 85.029883 47.403852 29.913009
31      1 2 0.0 84.994160 45.891641 27.245130
32      1 2 0.0 87.263049 43.512633 29.932429
33      1 2 0.0 85.500731 46.241243 33.922234
34      1 2 0.0 88.511050 40.163460 32.139874
35      1 2 0.0 84.534053 47.612907 31.772391
36      1 2 0.0 83.104271 49.430925 28.766536
37      1 1 0.0 90.361066 32.130988 40.822666
38      1 1 0.0 87.422428 42.155182 38.512434
39      1 1 0.0 90.960858 32.315878 37.167070
40      1 1 0.0 89.344757 38.155988 38.385600
41      1 2 0.0 89.714931 33.860206 39.961705
42      1 2 0.0 88.963825 39.520060 37.011589
43      1 2 0.0 88.603025 38.051087 34.343710
44      1 2 0.0 90.305859 35.238989 37.031009
45      1 2 0.0 89.173038 38.283295 41.020814
46      1 2 0.0 90.802704 31.699553 39.238454
47      1 2 0.0 88.524704 39.831065 38.870971
48      1 2 0.0 87.520350 41.914508 35.865116
49      1 1 0.0 90.878053 23.457133 47.921246
50      1 1 0.0 90.168929 33.879091 45.611014
51      1 1 0.0 91.503597 23.508408 44.265650
52      1 1 0.0 91.184159 29.559576 45.484180
53      1 2 0.0 90.619791 25.284969 47.060285
54      1 2 0.0 91.106170 30.973689 44.110169
55      1 2 0.0 90.437250 29.617000 41.442290
56      1 2 0.0 91.493991 26.503990 44.129589
57      1 2 0.0 91.043913 29.720900 48.119394
58      1 2 0.0 91.216327 22.940654 46.337034
59      1 2 0.0 90.744398 31.372027 45.969551
60      1 2 0.0 90.212679 33.622968 42.963696
61      1 1 0.0 89.513468 14.875703 55.019826
62      1 1 0.0 91.067189 25.205563 52.709594
63      1 1 0.0 90.135362 14.790953 51.364230
64      1 1 0.0 91.127602 20.768756 52.582760
65      1 2 0.0 89.655218 16.716244 54.158865
66      1 2 0.0 91.356220 22.166445 51.208749
67      1 2 0.0 90.410622 20.985808 48.540870
68      1 2 0.0 90.771601 17.718205 51.228169
69      1 2 0.0 91.025421 20.956515 55.217974
70      1 2 0.0 89.732479 14.298455 53.435614
71      1 2 0.0 91.088802 22.633391 53.068131
72      1 2 0.0 91.054711 24.946030 50.062276
73      1 1 0.0 86.331451 6.790048 62.118406
74      1 1 0.0 90.074987 16.542278 59.808174
75      1 1 0.0 86.920464 6.573257 58.462810
76      1 1 0.0 89.177743 12.196723 59.681340
77      1 2 0.0 86.866550 8.556784 61.257445
78      1 2 0.0 89.702224 13.512291 58.307329
79      1 2 0.0 88.524394 12.563200 55.639450
80      1 2 0.0 88.172643 9.294590 58.326749
81      1 2 0.0 89.118431 12.402091 62.316554
82      1 2 0.0 86.420904 6.179165 60.534194
83      1 2 0.0 89.541728 14.025898 60.166711
84      1 2 0.0 90.006867 16.291535 57.160856
85      1 1 0.0 81.481565 -0.419781 69.216986
86      1 1 0.0 87.238960 8.296436 66.906754
87      1 1 0.0 82.010012 -0.758424 65.561390
88      1 1 0.0 85.426232 4.246385 66.779920
89      1 2 0.0 82.384862 1.190107 68.356025
90      1 2 0.0 86.221923 5.417997 65.405909
91      1 2 0.0 84.867222 4.745061 62.738030
92      1 2 0.0 83.819274 1.629079 65.425329
93      1 2 0.0 85.412575 4.459710 69.415134
94      1 2 0.0 81.437256 -1.035587 67.632774
95      1 2 0.0 86.175894 5.954125 67.265291
96      1 2 0.0 87.118400 8.066267 64.259436
97      1 1 0.0 75.191768 -6.414904 76.315566
98      1 1 0.0 82.692409 0.855615 74.005334
99      1 1 0.0 75.634810 -6.859481 72.659970
100     1 1 0.0 80.049400 -2.708569 73.878500
101     1 2 0.0 76.420805 -5.037533 75.454605
102     1 2 0.0 81.078902 -1.735982 72.504489
103     1 2 0.0 79.611004 -2.101132 69.836610
104     1 2 0.0 77.916117 -4.918027 72.523909
105     1 2 0.0 80.082041 -2.497314 76.513714
106     1 2 0.0 75.015780 -7.006688 74.731354
107     1 2 0.0 81.149502 -1.202533 74.363871
108     1 2 0.0 82.525075 0.656838 71.358016
109     1 1 0.0 67.757699 -10.913533 83.414146
110     1 1 0.0 76.649034 -5.430448 81.103914
111     1 1 0.0 68.094513 -11.443148 79.758550
112     1 1 0.0 73.299973 -8.341237 80.977080
113     1 2 0.0 69.254709 -9.833418 82.553185
114     1 2 0.0 74.514896 -7.613389 79.603069
115     1 2 0.0 73.002797 -7.653591 76.935190
116     1 2 0.0 70.740634 -10.038996 79.622489
117     1 2 0.0 73.377378 -8.141981 83.612294
118     1 2 0.0 67.458303 -11.453480 81.829934
119     1 2 0.0 74.698808 -7.107693 81.462451
120     1 2 0.0 76.442791 -5.588488 78.456596
121     1 1 0.0 59.528780 -13.704219 90.512726
122     1 1 0.0 69.392891 -10.266288 88.202494
123     1 1 0.0 59.743533 -14.293978 86.857130
124     1 1 0.0 65.495194 -12.386867 88.075660
125     1 2 0.0 61.223398 -12.972130 89.651765
126     1 2 0.0 66.838433 -11.937969 86.701649
127     1 2 0.0 65.353206 -11.651333 84.033770
128     1 2 0.0 62.630096 -13.493128 86.721069
129     1 2 0.0 65.613723 -12.208977 90.710874
130     1 2 0.0 59.120049 -14.166949 88.928514
131     1 2 0.0 67.127012 -11.483796 88.561031
132     1 2 0.0 69.157434 -10.376164 85.555176
133     1 1 0.0 50.891793 -14.655793 97.611306
134     1 1 0.0 61.265039 -13.424608 95.301074
135     1 1 0.0 50.974392 -15.277976 93.955710
136     1 1 0.0 57.001908 -14.655304 95.174240
137     1 2 0.0 52.704368 -14.306139 96.750345
138     1 2 0.0 58.410327 -14.506456 93.800229
139     1 2 0.0 57.021782 -13.906455 91.132350
140     1 2 0.0 53.965718 -15.118070 93.819649
141     1 2 0.0 57.155992 -14.507140 97.809454
142     1 2 0.0 50.392938 -15.019557 96.027094
143     1 2 0.0 58.790010 -14.125152 95.659611
144     1 2 0.0 61.011435 -13.481155 92.653756
145     1 1 0.0 42.252700 -13.723527 104.709886
146     1 1 0.0 52.647510 -14.756957 102.399654
147     1 1 0.0 42.199263 -14.348890 101.054290
148     1 1 0.0 48.219325 -15.039925 102.272820
149     1 2 0.0 44.098036 -13.772743 103.848925
150     1 2 0.0 49.626724 -15.198122 100.898809
151     1 2 0.0 48.400126 -14.312958 98.230930
152     1 2 0.0 45.154753 -14.837444 100.918229
153     1 2 0.0 48.401720 -14.928452 104.908034
154     1 2 0.0 41.687170 -13.971227 103.125674
155     1 2 0.0 50.079664 -14.907610 102.758191
156     1 2 0.0 52.387679 -14.757518 99.752336
157     1 1 0.0 34.017564 -10.951241 111.808466
158     1 1 0.0 43.945353 -14.200713 109.498234
159     1 1 0.0 33.830602 -11.550390 108.152870
160     1 1 0.0 39.560249 -13.522651 109.371400
161     1 2 0.0 35.808924 -11.397014 110.947505
162     1 2 0.0 40.900478 -13.980459 107.997389
163     1 2 0.0 39.893481 -12.851736 105.329510
164     1 2 0.0 36.611338 -12.664441 108.016809
165     1 2 0.0 39.762383 -13.453108 112.006614
166     1 2 0.0 33.411939 -11.071235 110.224254
167     1 2 0.0 41.405385 -13.794393 109.856771
168     1 2 0.0 43.691507 -14.145261 106.850916
169     1 1 0.0 26.573459 -6.469240 118.907046
170     1 1 0.0 35.567592 -11.782019 116.596814
171     1 1 0.0 26.261759 -7.014014 115.251450
172     1 1 0.0 31.431683 -10.174799 116.469980
173     1 2 0.0 28.226644 -7.290618 118.046085
174     1 2 0.0 32.641745 -10.910698 115.095969
175     1 2 0.0 31.901681 -9.591470 112.428090
176     1 2 0.0 28.737040 -8.701197 115.115389
177     1 2 0.0 31.644054 -10.150455 119.105194
178     1 2 0.0 25.956205 -6.455887 117.322834
179     1 2 0.0 33.174888 -10.837825 116.955351
180     1 2 0.0 35.331663 -11.673160 113.949496
181     1 1 0.0 20.270278 -0.488191 126.005626
182     1 1 0.0 27.908006 -7.614562 123.695394
183     1 1 0.0 19.848492 -0.952983 122.350030
184     1 1 0.0 24.215691 -5.153727 123.568560
185     1 2 0.0 21.707585 -1.646566 125.144665
186     1 2 0.0 25.238711 -6.133129 122.194549
187     1 2 0.0 24.800364 -4.685403 119.526670
188     1 2 0.0 21.901972 -3.133997 122.213969
189     1 2 0.0 24.428318 -5.175726 126.203774
190     1 2 0.0 19.670408 -0.342119 124.421414
191     1 2 0.0 25.775031 -6.176873 124.053931
192     1 2 0.0 27.701083 -7.457413 121.048076
193     1 1 0.0 15.404288 6.710780 133.104206
194     1 1 0.0 21.326617 -1.894223 130.793974
195     1 1 0.0 14.892241 6.347816 129.448610
196     1 1 0.0 18.251445 1.304561 130.667140
197     1 2 0.0 16.558159 5.269855 132.243245
198     1 2 0.0 19.039339 0.127691 129.293129
199     1 2 0.0 18.923313 1.635868 126.625250
200     1 2 0.0 16.427402 3.775485 129.312549
201     1 2 0.0 18.454334 1.237252 133.302354
202     1 2 0.0 14.849999 6.982706 131.519994
203     1 2 0.0 19.553626 -0.030615 131.152511
204     1 2 0.0 21.158427 -1.696170 128.146656
205     1 1 0.0 12.204206 14.789302 140.202786
206     1 1 0.0 16.132769 5.110126 137.892554
207     1 1 0.0 11.625966 14.545226 136.547190
208     1 1 0.0 13.819282 8.896507 137.765720
209     1 2 0.0 13.020406 13.133554 139.341825
210     1 2 0.0 14.335016 7.577485 136.391709
211     1 2 0.0 14.546764 9.075224 133.723830
212     1 2 0.0 12.570649 11.702485 136.411129
213     1 2 0.0 14.002896 8.787053 140.400934
214     1 2 0.0 11.721549 15.174299 138.618574
215     1 2 0.0 14.803097 7.312059 138.251091
216     1 2 0.0 16.011217 5.339773 135.245236
217     1 1 0.0 10.820444 23.367661 147.301366
218     1 1 0.0 12.570588 13.069261 144.991134
219     1 1 0.0 10.203188 23.253946 143.645770
220     1 1 0.0 11.127525 17.265267 144.864300
221     1 2 0.0 11.260608 21.574915 146.440405
222     1 2 0.0 11.346858 15.866091 143.490289
223     1 2 0.0 11.876429 17.282994 140.822410
224     1 2 0.0 10.512992 20.274412 143.509709
225     1 2 0.0 11.283234 17.118812 147.499514
226     1 2 0.0 10.432106 23.847634 145.717154
227     1 2 0.0 11.746734 15.506020 145.349671
228     1 2 0.0 12.501386 13.319708 142.343816
229     1 1 0.0 11.318042 32.042650 154.399946
230     1 1 0.0 10.807505 21.609079 152.089714
231     1 1 0.0 10.690784 32.064641 150.744350
232     1 1 0.0 10.302696 26.017488 151.962880
233     1 2 0.0 11.361482 30.197170 153.538985
234     1 2 0.0 10.215318 24.603923 150.588869
235     1 2 0.0 11.037820 25.873392 147.920990
236     1 2 0.0 10.351147 29.088359 150.608289
237     1 2 0.0 10.423181 25.840916 154.598094
238     1 2 0.0 11.042276 32.595039 152.815734
239     1 2 0.0 10.528192 24.166131 152.448251
240     1 2 0.0 10.793907 21.868555 149.442396
241     1 1 0.0 13.673611 40.406520 161.498526
242     1 1 0.0 10.926391 30.328186 159.188294
243     1 1 0.0 13.065835 40.563183 157.842930
244     1 1 0.0 11.383562 34.741789 159.061460
245     1 2 0.0 13.318287 38.595049 160.637565
246     1 2 0.0 10.993581 33.380277 157.687449
247     1 2 0.0 12.070353 34.442643 155.019570
248     1 2 0.0 12.092721 37.730049 157.706869
249     1 2 0.0 11.463160 34.543399 161.696674
250     1 2 0.0 13.523380 41.005362 159.914314
251     1 2 0.0 11.204748 32.885342 159.546831
252     1 2 0.0 10.969036 30.584494 156.540976
253     1 1 0.0 17.776435 48.066147 168.597106
254     1 1 0.0 12.921657 38.816759 166.286874
255     1 1 0.0 17.216707 48.350118 164.941510
256     1 1 0.0 14.319321 43.028105 166.160040
257     1 2 0.0 17.039046 46.373829 167.736145
258     1 2 0.0 13.645067 41.782640 164.786029
259     1 2 0.0 14.925498 42.587969 162.118150
260     1 2 0.0 15.655854 45.793295 164.805449
261     1 2 0.0 14.354290 42.817222 168.795254
262     1 2 0.0 17.758799 48.683293 167.012894
263     1 2 0.0 13.744601 41.253826 166.645411
264     1 2 0.0 13.018541 39.057852 163.639556
265     1 1 0.0 23.433668 54.661506 175.695686
266     1 1 0.0 16.699521 46.675811 173.385454
267     1 1 0.0 22.948297 55.059438 172.040090
268     1 1 0.0 18.971983 50.486955 173.258620
269     1 2 0.0 22.348873 53.167884 174.834725
270     1 2 0.0 18.045148 49.416078 171.884609
271     1 2 0.0 19.469055 49.926517 169.216730
272     1 2 0.0 20.873070 52.899105 171.904029
273     1 2 0.0 18.960681 50.273491 175.893834
274     1 2 0.0 23.549456 55.267949 174.111474
275     1 2 0.0 18.028370 48.878240 173.743991
276     1 2 0.0 16.846089 46.890358 170.738136
277     1 1 0.0 30.379404 59.882596 182.794266
278     1 1 0.0 22.082413 53.535945 180.484034
279     1 1 0.0 29.991204 60.375785 179.138670
280     1 1 0.0 25.122860 56.767752 180.357200
281     1 2 0.0 28.998193 58.657875 181.933305
282     1 2 0.0 23.987008 55.921797 178.983189
283     1 2 0.0 25.487463 56.113355 176.315310
284     1 2 0.0 27.499145 58.713484 179.002609
285     1 2 0.0 25.065817 56.561741 182.992414
286     1 2 0.0 30.623174 60.449832 181.210054
287     1 2 0.0 23.854708 55.400215 180.842571
288     1 2 0.0 22.271776 53.713861 177.836716
289     1 1 0.0 38.287175 63.484012 189.892846
290     1 1 0.0 28.817320 59.074715 187.582614
291     1 1 0.0 38.014392 64.049277 186.237250
292     1 1 0.0 32.482845 61.575281 187.455780
293     1 2 0.0 36.674468 62.585758 189.031885
294     1 2 0.0 31.191363 60.994011 186.081769
295     1 2 0.0 32.697840 60.857683 183.413890
296     1 2 0.0 35.222635 62.963140 186.101189
297     1 2 0.0 32.382742 61.386406 190.090994
298     1 2 0.0 38.647469 63.985379 188.308634
299     1 2 0.0 30.949759 60.513200 187.941151
300     1 2 0.0 29.040579 59.207637 184.935296
301     1 1 0.0 46.785293 65.296477 196.991426
302     1 1 0.0 36.587685 63.031784 194.681194
303     1 1 0.0 46.640749 65.907249 193.335830
304     1 1 0.0 40.705996 64.683576 194.554360
305     1 2 0.0 45.016892 64.766910 196.130465
306     1 2 0.0 39.319588 64.394311 193.180349
307     1 2 0.0 40.761279 63.936505 190.512470
308     1 2 0.0 43.680513 65.448328 193.199769
309     1 2 0.0 40.567538 64.520714 197.189574
310     1 2 0.0 47.245176 65.708410 195.407214
311     1 2 0.0 38.980036 63.976872 195.039731
312     1 2 0.0 36.834344 63.113465 192.033876
313     1 1 0.0 55.474323 65.234801 204.090006
314     1 1 0.0 45.028277 65.221157 201.779774
315     1 1 0.0 55.464811 65.862371 200.434410
316     1 1 0.0 49.405803 65.946536 201.652940
317     1 2 0.0 53.633347 65.098812 203.229045
318     1 2 0.0 47.989634 65.962874 200.278929
319     1 2 0.0 49.298775 65.205108 197.611050
320     1 2 0.0 52.475237 66.052236 200.298349
321     1 2 0.0 49.235499 65.817343 204.288154
322     1 2 0.0 56.012179 65.537937 202.505794
323     1 2 0.0 47.568093 65.628426 202.138311
324     1 2 0.0 45.286744 65.247758 199.132456
325     1 1 0.0 63.945855 63.301881 5.866710
326     1 1 0.0 53.742366 65.539930 3.556478
327     1 1 0.0 64.071824 63.916753 2.211114
328     1 1 0.0 58.173350 65.304800 3.429644
329     1 2 0.0 62.118836 63.565862 5.005749
330     1 2 0.0 56.793984 65.625972 2.055633
331     1 2 0.0 57.909042 64.603864 204.709630
332     1 2 0.0 61.193429 64.746480 2.075053
333     1 2 0.0 57.979204 65.215348 6.064858
334     1 2 0.0 64.536404 63.481972 4.282498
335     1 2 0.0 56.310269 65.390236 3.915015
336     1 2 0.0 54.000492 65.510199 0.909160
337     1 1 0.0 71.801705 59.588572 12.965290
338     1 1 0.0 62.320365 63.973117 10.655058
339     1 1 0.0 72.057232 60.161844 9.309694
340     1 1 0.0 66.596538 62.788532 10.528224
341     1 2 0.0 70.074518 60.240115 12.104329
342     1 2 0.0 65.318810 63.399441 9.154213
343     1 2 0.0 66.187373 62.161032 6.486334
344     1 2 0.0 69.425310 61.592434 9.173633
345     1 2 0.0 66.387676 62.743024 13.163438
346     1 2 0.0 72.417189 59.637153 11.381078
347     1 2 0.0 64.795656 63.273498 11.013595
348     1 2 0.0 62.566016 63.888453 8.007740
349     1 1 0.0 80.155791 50.356090 17.037490
350     1 1 0.0 74.558469 56.799934 12.819700
351     1 1 0.0 80.646270 51.233550 13.510510
352     1 1 0.0 78.227490 54.768458 12.760859
353     1 2 0.0 78.459636 51.378597 16.432826
354     1 2 0.0 77.689547 55.872745 10.999658
355     1 2 0.0 75.146997 54.409679 11.242797
356     1 2 0.0 79.311075 53.127155 12.646755
357     1 2 0.0 79.013281 54.473366 14.357040
358     1 2 0.0 80.855152 50.450345 15.462393
359     1 2 0.0 76.576103 55.539379 13.281939
360     1 2 0.0 74.018206 56.874978 10.989272
361     1 1 0.0 84.840558 43.453398 24.136070
362     1 1 0.0 80.763583 50.952159 19.918280
363     1 1 0.0 85.508624 44.204527 20.609090
364     1 1 0.0 83.908546 48.177664 19.859439
365     1 2 0.0 83.404640 44.817437 23.531406
366     1 2 0.0 83.621245 49.371939 18.098238
367     1 2 0.0 80.823123 48.491236 18.341377
368     1 2 0.0 84.612925 46.341396 19.745335
369     1 2 0.0 84.612270 47.720151 21.455620
370     1 2 0.0 85.543797 43.394709 22.560973
371     1 2 0.0 82.462120 49.286381 20.380519
372     1 2 0.0 80.252190 51.141878 18.087852
373     1 1 0.0 87.927533 35.703251 31.234650
374     1 1 0.0 85.562534 43.904465 27.016860
375     1 1 0.0 88.741784 36.292744 27.707670
376     1 1 0.0 88.035616 40.517361 26.958019
377     1 2 0.0 86.819344 37.344707 30.629986
378     1 2 0.0 88.012462 41.745489 25.196818
379     1 2 0.0 85.090287 41.488545 25.439957
380     1 2 0.0 88.327682 38.572437 26.843915
381     1 2 0.0 88.624196 39.918930 28.554200
382     1 2 0.0 88.601597 35.494377 29.659553
383     1 2 0.0 86.862138 41.911760 27.479099
384     1 2 0.0 85.104049 44.199943 25.186432
385     1 1 0.0 89.271619 27.469927 38.333230
386     1 1 0.0 88.729757 35.988114 34.115440
387     1 1 0.0 90.193784 27.870075 34.806250
388     1 1 0.0 90.414717 32.147604 34.056599
389     1 2 0.0 88.543246 29.311648 37.728566
390     1 2 0.0 90.656798 33.351859 32.295398
391     1 2 0.0 87.747921 33.730752 32.538537
392     1 2 0.0 90.280742 30.185442 33.942495
393     1 2 0.0 90.860489 31.436384 35.652780
394     1 2 0.0 89.884824 27.120685 36.758133
395     1 2 0.0 89.569344 33.762145 34.577679
396     1 2 0.0 88.345730 36.375463 32.285012
397     1 1 0.0 88.809640 19.140415 45.431810
398     1 1 0.0 90.116384 27.575197 41.214020
399     1 1 0.0 89.796374 19.332410 41.904830
400     1 1 0.0 90.934024 23.461795 41.155179
401     1 2 0.0 88.495320 21.095834 44.827146
402     1 2 0.0 91.429961 24.585575 39.393978
403     1 2 0.0 88.671108 25.582495 39.637117
404     1 2 0.0 90.380305 21.574621 41.041075
405     1 2 0.0 91.216035 22.671216 42.751360
406     1 2 0.0 89.333164 18.667220 43.856713
407     1 2 0.0 90.456490 25.220591 41.676259
408     1 2 0.0 89.824865 28.036209 39.383592
409     1 1 0.0 86.563311 11.106225 52.530390
410     1 1 0.0 89.657241 19.061144 48.312600
411     1 1 0.0 87.568235 11.081044 49.003410
412     1 1 0.0 89.569128 14.868192 48.253759
413     1 2 0.0 86.677817 13.083433 51.925726
414     1 2 0.0 90.295612 15.858675 46.492558
415     1 2 0.0 87.816455 17.426765 46.735697
416     1 2 0.0 88.621692 13.144709 48.139655
417     1 2 0.0 89.674123 14.035412 49.849940
418     1 2 0.0 86.972546 10.531320 50.955293
419     1 2 0.0 89.481880 16.688573 48.774839
420     1 2 0.0 89.471931 19.574151 46.482172
421     1 1 0.0 82.638214 3.744988 59.628970
422     1 1 0.0 87.373907 10.846140 55.411180
423     1 1 0.0 83.614094 3.503814 56.101990
424     1 1 0.0 86.384184 6.770718 55.352339
425     1 2 0.0 83.176164 5.651050 59.024306
426     1 2 0.0 87.307067 7.581349 53.591138
427     1 2 0.0 85.224135 9.646904 53.834277
428     1 2 0.0 85.087562 5.291935 55.238235
429     1 2 0.0 86.307228 5.934881 56.948520
430     1 2 0.0 82.913926 3.095394 58.053873
431     1 2 0.0 86.691322 8.567122 55.873419
432     1 2 0.0 87.303517 11.387029 53.580752
433     1 1 0.0 77.218842 -2.597299 66.727550
434     1 1 0.0 83.373705 3.316312 62.509760
435     1 1 0.0 78.119808 -3.043130 63.200570
436     1 1 0.0 81.528893 -0.450023 62.450919
437     1 2 0.0 78.154951 -0.851973 66.122886
438     1 2 0.0 82.604797 0.142654 60.689718
439     1 2 0.0 81.015992 2.608587 60.932857
440     1 2 0.0 79.944030 -1.614600 62.336815
441     1 2 0.0 81.273602 -1.249631 64.047100
442     1 2 0.0 77.348071 -3.291049 65.152453
443     1 2 0.0 82.215980 1.237968 62.971999
444     1 2 0.0 83.421545 3.859660 60.679332
445     1 1 0.0 70.559919 -7.622529 73.826130
446     1 1 0.0 77.844658 -3.174416 69.608340
447     1 1 0.0 71.343624 -8.252062 70.299150
448     1 1 0.0 75.231467 -6.454635 69.549499
449     1 2 0.0 71.850187 -6.119974 73.221466
450     1 2 0.0 76.409821 -6.107770 67.788298
451     1 2 0.0 75.389823 -3.357365 68.031437
452     1 2 0.0 73.432856 -7.250268 69.435395
453     1 2 0.0 74.809841 -7.180430 71.145680
454     1 2 0.0 70.536591 -8.327827 72.251033
455     1 2 0.0 76.266208 -4.954399 70.070579
456     1 2 0.0 78.008478 -2.654147 67.777912
457     1 1 0.0 62.974433 -11.094503 80.924710
458     1 1 0.0 71.046645 -8.320961 76.706920
459     1 1 0.0 63.604040 -11.878149 77.397730
460     1 1 0.0 67.787902 -10.960886 76.648079
461     1 2 0.0 64.558214 -9.905344 80.320046
462     1 2 0.0 69.013321 -10.876136 74.886878
463     1 2 0.0 68.610072 -7.970536 75.130017
464     1 2 0.0 65.860084 -11.350177 76.533975
465     1 2 0.0 67.219759 -11.578754 78.244260
466     1 2 0.0 62.799645 -11.778198 79.349613
467     1 2 0.0 69.121662 -9.718919 77.169159
468     1 2 0.0 71.318745 -7.848227 74.876492
469     1 1 0.0 54.818924 -12.850028 88.023290
470     1 1 0.0 63.299191 -11.881422 83.805500
471     1 1 0.0 55.264840 -13.750953 84.496310
472     1 1 0.0 59.548067 -13.756969 83.746659
473     1 2 0.0 56.621776 -12.030159 87.418626
474     1 2 0.0 60.762953 -13.938317 81.985458
475     1 2 0.0 60.995406 -11.014093 82.228597
476     1 2 0.0 57.581654 -13.721620 83.632555
477     1 2 0.0 58.860111 -14.237867 85.342840
478     1 2 0.0 54.500891 -13.479985 86.448193
479     1 2 0.0 61.118155 -12.831646 84.267739
480     1 2 0.0 63.666782 -11.478442 81.975072
481     1 1 0.0 46.476723 -12.806591 95.121870
482     1 1 0.0 54.966450 -13.688447 90.904080
483     1 1 0.0 46.717990 -13.782448 91.594890
484     1 1 0.0 50.899258 -14.711459 90.845239
485     1 2 0.0 48.413908 -12.394547 94.517206
486     1 2 0.0 52.046507 -15.150383 89.084038
487     1 2 0.0 52.903738 -12.344981 89.327177
488     1 2 0.0 48.986677 -14.253133 90.731135
489     1 2 0.0 50.123825 -15.032785 92.441420
490     1 2 0.0 46.030394 -13.353198 93.546773
491     1 2 0.0 52.631876 -14.146274 91.366319
492     1 2 0.0 55.412254 -13.374162 89.073652
493     1 1 0.0 38.339938 -10.966231 102.220450
494     1 1 0.0 46.440084 -13.657101 98.002660
495     1 1 0.0 38.365214 -11.971153 98.693470
496     1 1 0.0 42.247992 -13.779494 97.943819
497     1 2 0.0 40.320401 -10.981380 101.615786
498     1 2 0.0 43.273681 -14.455362 96.182618
499     1 2 0.0 44.715396 -11.900644 96.425757
500     1 2 0.0 40.479140 -12.919732 97.829715
501     1 2 0.0 41.421530 -13.926144 99.540000
502     1 2 0.0 37.786291 -11.403799 100.645353
503     1 2 0.0 44.061702 -13.601012 98.464899
504     1 2 0.0 46.943146 -13.446283 96.172232
505     1 1 0.0 30.791020 -7.415452 109.319030
506     1 1 0.0 38.120854 -11.788857 105.101240
507     1 1 0.0 30.599117 -8.402204 105.792050
508     1 1 0.0 34.000904 -11.004878 105.042399
509     1 2 0.0 32.721674 -7.857082 108.714366
510     1 2 0.0 34.856822 -11.885922 103.281198
511     1 2 0.0 36.815258 -9.701968 103.524337
512     1 2 0.0 32.458922 -9.784092 104.928295
513     1 2 0.0 33.162258 -10.969959 106.638580
514     1 2 0.0 30.156079 -7.723412 107.743933
515     1 2 0.0 35.810457 -11.221488 105.563479
516     1 2 0.0 38.657530 -11.691415 103.270812
517     1 1 0.0 24.184789 -2.321151 116.417610
518     1 1 0.0 30.399790 -8.171527 112.199820
519     1 1 0.0 23.784728 -3.243353 112.890630
520     1 1 0.0 26.545630 -6.518026 112.140979
521     1 2 0.0 25.974889 -3.168503 115.812946
522     1 2 0.0 27.191547 -7.562835 110.379778
523     1 2 0.0 29.574650 -5.852297 110.622917
524     1 2 0.0 25.302995 -4.993596 112.026875
525     1 2 0.0 25.734219 -6.303180 113.737160
526     1 2 0.0 23.498397 -2.485028 114.842513
527     1 2 0.0 28.265971 -7.119547 112.662059
528     1 2 0.0 30.944854 -8.192042 110.369392
529     1 1 0.0 18.831757 4.077228 123.516190
530     1 1 0.0 23.639801 -2.975137 119.298400
531     1 1 0.0 18.242341 3.262921 119.989210
532     1 1 0.0 20.232589 -0.529833 119.239559
533     1 2 0.0 20.397162 2.863980 122.911526
534     1 2 0.0 20.638144 -1.689298 117.478358
535     1 2 0.0 23.333903 -0.532575 117.721497
536     1 2 0.0 19.347708 1.226588 119.125455
537     1 2 0.0 19.486552 -0.145158 120.835740
538     1 2 0.0 18.126177 4.065135 121.941093
539     1 2 0.0 21.782857 -1.487992 119.760639
540     1 2 0.0 24.167634 -3.112645 117.467972
541     1 1 0.0 14.983531 11.478941 130.614770
542     1 1 0.0 18.158627 3.556069 126.396980
543     1 1 0.0 14.232465 10.810804 127.087790
544     1 1 0.0 15.358510 6.678240 126.338139
545     1 2 0.0 16.250663 9.956824 130.010106
546     1 2 0.0 15.504643 5.458617 124.576938
547     1 2 0.0 18.386349 6.007156 124.820077
548     1 2 0.0 14.872976 8.584096 126.224035
549     1 2 0.0 14.712913 7.214664 127.934320
550     1 2 0.0 14.291927 11.619202 129.039673
551     1 2 0.0 16.665839 5.408480 126.859219
552     1 2 0.0 18.644420 3.308032 124.566552
553     1 1 0.0 12.820989 19.536087 137.713350
554     1 1 0.0 14.213899 11.115105 133.495560
555     1 1 0.0 11.943575 19.045525 134.186370
556     1 1 0.0 12.152491 14.767393 133.436719
557     1 2 0.0 13.730289 17.776645 137.108686
558     1 2 0.0 12.032331 13.544938 131.675518
559     1 2 0.0 14.964536 13.459509 131.918657
560     1 2 0.0 12.089124 16.733102 133.322615
561     1 2 0.0 11.637678 15.430351 135.032900
562     1 2 0.0 12.175868 19.822109 136.138253
563     1 2 0.0 13.155432 13.245713 133.957799
564     1 2 0.0 14.634817 10.768198 131.665132
565     1 1 0.0 12.445776 27.869958 144.811930
566     1 1 0.0 11.991029 19.346676 140.594140
567     1 1 0.0 11.483255 27.580029 141.284950
568     1 1 0.0 10.765221 23.357412 140.535299
569     1 2 0.0 12.954505 25.955890 144.207266
570     1 2 0.0 10.384418 22.189584 138.774098
571     1 2 0.0 13.229300 21.474203 139.017237
572     1 2 0.0 11.127001 25.290582 140.421195
573     1 2 0.0 10.405391 24.115745 142.131480
574     1 2 0.0 11.877461 28.288297 143.236833
575     1 2 0.0 11.416634 21.655337 141.056379
576     1 2 0.0 12.327288 18.917204 138.763712
577     1 1 0.0 13.875529 36.088839 151.910510
578     1 1 0.0 11.594499 27.863875 147.692720
579     1 1 0.0 12.873141 36.013170 148.383530
580     1 1 0.0 11.261908 32.044544 147.633879
581     1 2 0.0 13.959775 34.110111 151.305846
582     1 2 0.0 10.638359 30.986233 145.872678
583     1 2 0.0 13.262201 29.674525 146.115817
584     1 2 0.0 12.031830 33.854309 147.519775
585     1 2 0.0 11.073973 32.862607 149.230060
586     1 2 0.0 13.410732 36.619832 150.335413
587     1 2 0.0 11.531174 30.242075 148.154959
588     1 2 0.0 11.830294 27.372024 145.862292
589     1 1 0.0 17.043044 43.806419 159.009090
590     1 1 0.0 13.042946 36.266369 154.791300
591     1 1 0.0 16.047906 43.948567 155.482110
592     1 1 0.0 13.619206 40.420468 154.732459
593     1 2 0.0 16.698847 41.856037 158.404426
594     1 2 0.0 12.782220 39.521419 152.971258
595     1 2 0.0 15.061693 37.675037 153.214397
596     1 2 0.0 14.761080 42.021765 154.618355
597     1 2 0.0 13.611999 41.259809 156.328640
598     1 2 0.0 16.703612 44.425108 157.433993
599     1 2 0.0 13.493668 38.602326 155.253539
600     1 2 0.0 13.167194 35.735259 152.960872
601     1 1 0.0 21.799440 50.659951 166.107670
602     1 1 0.0 16.268290 44.159218 161.889880
603     1 1 0.0 20.858325 51.013234 162.580690
604     1 1 0.0 17.726314 48.091492 161.831039
605     1 2 0.0 21.042979 48.829588 165.503006
606     1 2 0.0 16.715232 47.393963 160.069838
607     1 2 0.0 18.543196 45.099693 160.312977
608     1 2 0.0 19.186470 49.409056 161.716935
609     1 2 0.0 17.900174 48.912661 163.427220
610     1 2 0.0 21.601327 51.337255 164.532573
611     1 2 0.0 17.211874 46.343136 162.352119
612     1 2 0.0 16.275151 43.613811 160.059452
613     1 1 0.0 27.921153 56.327298 173.206250
614     1 1 0.0 21.118931 51.171436 168.988460
615     1 1 0.0 27.078297 56.875111 169.679270
616     1 1 0.0 23.390187 54.697058 168.929619
617     1 2 0.0 26.787983 54.702987 172.601586
618     1 2 0.0 22.252533 54.233833 167.168418
619     1 2 0.0 23.543067 51.599512 167.411557
620     1 2 0.0 25.099994 55.668958 168.815515
621     1 2 0.0 23.736943 55.461457 170.525800
622     1 2 0.0 27.873671 57.031383 171.631153
623     1 2 0.0 22.511025 53.100664 169.450699
624     1 2 0.0 21.008082 50.637368 167.158032
625     1 1 0.0 35.120445 60.542080 180.304830
626     1 1 0.0 27.366874 56.973429 176.087040
627     1 1 0.0 34.415464 61.258674 176.777850
628     1 1 0.0 30.344608 59.926683 176.028199
629     1 2 0.0 33.663828 59.200168 179.700166
630     1 2 0.0 29.133854 59.719537 174.266998
631     1 2 0.0 29.826300 56.868986 174.510137
632     1 2 0.0 32.223700 60.507239 175.914095
633     1 2 0.0 30.847961 60.598384 177.624380
634     1 2 0.0 35.225826 61.239851 178.729733
635     1 2 0.0 29.142046 58.557287 176.549279
636     1 2 0.0 27.143526 56.475803 174.256612
637     1 1 0.0 43.058930 63.106191 187.403410
638     1 1 0.0 34.718449 61.292486 183.185620
639     1 1 0.0 42.524959 63.957884 183.876430
640     1 1 0.0 38.262699 63.534563 183.126779
641     1 2 0.0 41.347331 62.109750 186.798746
642     1 2 0.0 37.035754 63.593231 181.365578
643     1 2 0.0 37.097565 60.660433 181.608717
644     1 2 0.0 40.222752 63.696485 183.012675
645     1 2 0.0 38.898990 64.081993 184.722960
646     1 2 0.0 43.312220 63.764851 185.828313
647     1 2 0.0 36.793262 62.456530 183.647859
648     1 2 0.0 34.393100 60.854692 181.355192
649     1 1 0.0 51.363475 63.899109 194.501990
650     1 1 0.0 42.828112 63.925601 190.284200
651     1 1 0.0 51.025614 64.845870 190.975010
652     1 1 0.0 46.772287 65.351115 190.225359
653     1 2 0.0 49.477345 63.294976 193.897326
654     1 2 0.0 45.586822 65.672840 188.464158
655     1 2 0.0 45.015093 62.795645 188.707297
656     1 2 0.0 48.721175 65.086794 190.111255
657     1 2 0.0 47.511608 65.748545 191.821540
658     1 2 0.0 51.752770 64.487700 192.926893
659     1 2 0.0 45.105042 64.615117 190.746439
660     1 2 0.0 42.416054 63.568216 188.453772
661     1 1 0.0 59.643745 62.883566 201.600570
662     1 1 0.0 51.314684 64.749009 197.382780
663     1 1 0.0 59.517873 63.880893 198.073590
664     1 1 0.0 55.473398 65.290958 197.323939
665     1 2 0.0 57.671737 62.700137 200.995906
666     1 2 0.0 54.385132 65.860618 195.562738
667     1 2 0.0 53.206736 63.174262 195.805877
668     1 2 0.0 57.319517 64.612817 197.209835
669     1 2 0.0 56.281000 65.519706 198.920120
670     1 2 0.0 60.150746 63.374421 200.025473
671     1 2 0.0 53.686710 64.931587 197.845019
672     1 2 0.0 50.835285 64.488831 195.552352
673     1 1 0.0 67.510543 60.107294 3.377274
674     1 1 0.0 59.779274 63.724007 204.481360
675     1 1 0.0 67.602578 61.108311 205.172170
676     1 1 0.0 63.957055 63.356918 204.422519
677     1 2 0.0 65.545347 60.353191 2.772610
678     1 2 0.0 63.017140 64.147737 202.661318
679     1 2 0.0 61.287465 61.778487 202.904457
680     1 2 0.0 65.613632 62.296832 204.308415
681     1 2 0.0 64.794978 63.406233 0.696824
682     1 2 0.0 68.111420 60.477343 1.802177
683     1 2 0.0 62.134904 63.391067 204.943599
684     1 2 0.0 59.255067 63.573266 202.650932
685     1 1 0.0 74.594108 55.700787 10.475854
686     1 1 0.0 67.824022 60.898774 6.258064
687     1 1 0.0 74.899723 56.658443 6.948874
688     1 1 0.0 71.824503 59.639902 6.199223
689     1 2 0.0 72.728093 56.364451 9.871190
690     1 2 0.0 71.077118 60.614709 4.438022
691     1 2 0.0 68.877462 58.673926 4.681161
692     1 2 0.0 73.213675 58.247697 6.085119
693     1 2 0.0 72.653362 59.507465 7.795404
694     1 2 0.0 75.260618 55.932636 8.900757
695     1 2 0.0 70.052535 60.065964 6.720303
696     1 2 0.0 67.279646 60.864555 4.427636
697     1 1 0.0 78.704203 46.684045 17.652656
698     1 1 0.0 75.386837 52.839394 11.948036
699     1 1 0.0 79.054056 47.776405 14.464893
700     1 1 0.0 78.619171 51.019695 12.105515
701     1 2 0.0 76.983042 47.594628 17.184609
702     1 2 0.0 78.448585 52.230749 10.147730
703     1 2 0.0 73.699937 50.528753 12.458370
704     1 2 0.0 78.576749 49.506156 12.947620
705     1 2 0.0 80.001469 50.642529 13.040584
706     1 2 0.0 79.333308 46.918746 16.218950
707     1 2 0.0 77.107683 51.649869 12.546975
708     1 2 0.0 74.331553 52.971700 10.709922
709     1 1 0.0 82.631672 40.180504 24.751236
710     1 1 0.0 80.718892 46.906164 19.046616
711     1 1 0.0 83.208733 41.171790 21.563473
712     1 1 0.0 83.483074 44.432586 19.204095
713     1 2 0.0 81.147213 41.440637 24.283189
714     1 2 0.0 83.577508 45.651944 17.246310
715     1 2 0.0 78.573639 45.013393 19.556950
716     1 2 0.0 83.115445 42.963761 20.046200
717     1 2 0.0 84.751597 43.766366 20.139164
718     1 2 0.0 83.296576 40.274102 23.317530
719     1 2 0.0 82.142925 45.373712 19.645555
720     1 2 0.0 79.716925 47.262800 17.808502
721     1 1 0.0 85.065172 32.983342 31.849816
722     1 1 0.0 84.646885 39.963189 26.145196
723     1 1 0.0 85.842317 33.826961 28.662053
724     1 1 0.0 86.812990 36.951997 26.302675
725     1 2 0.0 83.887189 34.533797 31.381769
726     1 2 0.0 87.168006 38.122345 24.344890
727     1 2 0.0 82.144111 38.577254 26.655530
728     1 2 0.0 86.137434 35.596924 27.144780
729     1 2 0.0 87.908115 36.028037 27.237744
730     1 2 0.0 85.734622 32.931437 30.416110
731     1 2 0.0 85.707172 38.159839 26.744135
732     1 2 0.0 83.745329 40.527391 24.907082
733     1 1 0.0 85.890323 25.430846 38.948396
734     1 1 0.0 86.986189 32.336808 33.243776
735     1 1 0.0 86.831024 26.087146 35.760633
736     1 1 0.0 88.452404 28.929536 33.401255
737     1 2 0.0 85.074183 27.198746 38.480349
738     1 2 0.0 89.051314 29.995865 31.443470
739     1 2 0.0 84.243532 31.522851 33.754110
740     1 2 0.0 87.500674 27.751907 34.243360
741     1 2 0.0 89.322656 27.791265 34.336324
742     1 2 0.0 86.532853 25.235879 37.514690
743     1 2 0.0 87.632892 30.347322 33.842715
744     1 2 0.0 86.227419 33.082057 32.005662
745     1 1 0.0 85.068339 17.878005 46.046976
746     1 1 0.0 87.626849 24.385481 40.342356
747     1 1 0.0 86.128380 18.316137 42.859213
748     1 1 0.0 88.324258 20.742281 40.499835
749     1 2 0.0 84.652404 19.780255 45.578929
750     1 2 0.0 89.138912 21.654471 38.542050
751     1 2 0.0 84.773221 24.181762 40.852690
752     1 2 0.0 87.141088 19.797449 41.341940
753     1 2 0.0 88.928734 19.443201 41.434904
754     1 2 0.0 85.653749 17.549139 44.613270
755     1 2 0.0 87.829573 22.303372 40.941295
756     1 2 0.0 87.046531 25.276750 39.104242
757     1 1 0.0 82.637855 10.679823 53.145556
758     1 1 0.0 86.538753 16.482945 47.440936
759     1 1 0.0 83.767412 10.879195 49.957793
760     1 1 0.0 86.434576 12.775057 47.598415
761     1 2 0.0 82.641676 12.627011 52.677509
762     1 2 0.0 87.426683 13.490232 45.640630
763     1 2 0.0 83.708283 16.899038 47.951270
764     1 2 0.0 85.075578 12.107431 48.440520
765     1 2 0.0 86.744863 11.376228 48.533484
766     1 2 0.0 83.138629 10.232517 51.711850
767     1 2 0.0 86.287968 14.406076 48.039875
768     1 2 0.0 86.164163 17.478340 46.202822
769     1 1 0.0 78.713113 4.174636 60.244136
770     1 1 0.0 83.773045 9.000640 54.539516
771     1 1 0.0 79.859093 4.125875 57.056373
772     1 1 0.0 82.872178 5.402345 54.696995
773     1 2 0.0 79.136509 6.075239 59.776089
774     1 2 0.0 83.995106 5.886890 52.739210
775     1 2 0.0 81.098773 10.016988 55.049850
776     1 2 0.0 81.401229 5.043305 55.539100
777     1 2 0.0 82.873692 3.969516 55.632064
778     1 2 0.0 79.105713 3.629913 58.810430
779     1 2 0.0 83.080539 7.026630 55.138455
780     1 2 0.0 83.621789 10.053374 53.301402
781     1 1 0.0 73.478585 -1.331795 67.342716
782     1 1 0.0 79.459720 2.290255 61.638096
783     1 1 0.0 74.587124 -1.626396 64.154953
784     1 1 0.0 77.804507 -1.029316 61.795575
785     1 2 0.0 74.301656 0.432889 66.874669
786     1 2 0.0 79.005476 -0.798177 59.837790
787     1 2 0.0 77.067344 3.859087 62.148430
788     1 2 0.0 76.290746 -1.062894 62.637680
789     1 2 0.0 77.497177 -2.428798 62.730644
790     1 2 0.0 73.744558 -1.948331 65.909010
791     1 2 0.0 78.358043 0.511889 62.237035
792     1 2 0.0 79.538908 3.350848 60.399982
793     1 1 0.0 67.180309 -5.580653 74.441296
794     1 1 0.0 73.801517 -3.332802 68.736676
795     1 1 0.0 68.199302 -6.107246 71.253533
796     1 1 0.0 71.469757 -6.217621 68.894155
797     1 2 0.0 68.364368 -4.034832 73.973249
798     1 2 0.0 72.692317 -6.250751 66.936370
799     1 2 0.0 71.803486 -1.285226 69.247010
800     1 2 0.0 69.984335 -5.924158 69.736260
801     1 2 0.0 70.868028 -7.517976 69.829224
802     1 2 0.0 67.307153 -6.240022 73.007590
803     1 2 0.0 72.342451 -4.831936 69.335615
804     1 2 0.0 74.107427 -2.314201 67.498562
805     1 1 0.0 60.114322 -8.372228 81.539876
806     1 1 0.0 67.064388 -7.604232 75.835256
807     1 1 0.0 60.995874 -9.106062 78.352113
808     1 1 0.0 64.165680 -9.918704 75.992735
809     1 2 0.0 61.603715 -7.117929 81.071829
810     1 2 0.0 65.352368 -10.214546 74.034950
811     1 2 0.0 65.554614 -5.174154 76.345590
812     1 2 0.0 62.778416 -9.311994 76.834840
813     1 2 0.0 63.297835 -11.058812 76.927804
814     1 2 0.0 60.096075 -9.043439 80.106170
815     1 2 0.0 65.316512 -8.753671 76.434195
816     1 2 0.0 67.582641 -6.675501 74.597142
817     1 1 0.0 52.612745 -9.575308 88.638456
818     1 1 0.0 59.564995 -10.323266 82.933836
819     1 1 0.0 53.315420 -10.481893 85.450693
820     1 1 0.0 56.235588 -11.958604 83.091315
821     1 2 0.0 54.337466 -8.671487 88.170409
822     1 2 0.0 57.330626 -12.503254 81.133530
823     1 2 0.0 58.614443 -7.624906 83.444170
824     1 2 0.0 55.011686 -11.067165 83.933420
825     1 2 0.0 55.142418 -12.884877 84.026384
826     1 2 0.0 52.450264 -10.226813 87.204750
827     1 2 0.0 57.610466 -11.068983 83.532775
828     1 2 0.0 60.271232 -9.528057 81.695722
829     1 1 0.0 45.028172 -9.133347 95.737036
830     1 1 0.0 51.655833 -11.362102 90.032416
831     1 1 0.0 45.518944 -10.170068 92.549273
832     1 1 0.0 48.052217 -12.241441 90.189895
833     1 2 0.0 46.907155 -8.622485 95.268989
834     1 2 0.0 49.004135 -13.009297 88.232110
835     1 2 0.0 51.309180 -8.522291 90.542750
836     1 2 0.0 47.049205 -11.107171 91.032000
837     1 2 0.0 46.785104 -12.910341 91.124964
838     1 2 0.0 44.729096 -9.734522 94.303330
839     1 2 0.0 49.586518 -11.669046 90.631355
840     1 2 0.0 52.516859 -10.737792 88.794302
841     1 1 0.0 37.717101 -7.067117 102.835616
842     1 1 0.0 43.708653 -10.671911 97.130996
843     1 1 0.0 37.972901 -8.185247 99.647853
844     1 1 0.0 40.000208 -10.753920 97.288475
845     1 2 0.0 39.662028 -6.973227 102.367569
846     1 2 0.0 40.764264 -11.708891 95.330690
847     1 2 0.0 43.982194 -7.824128 97.641330
848     1 2 0.0 39.265231 -9.430134 98.130580
849     1 2 0.0 38.618711 -11.134007 98.223544
850     1 2 0.0 37.295486 -7.589705 101.401910
851     1 2 0.0 41.621816 -10.525655 97.729935
852     1 2 0.0 44.683997 -10.247845 95.892882
853     1 1 0.0 31.023172 -3.473737 109.934196
854     1 1 0.0 36.096995 -8.285135 104.229576
855     1 1 0.0 31.031977 -4.620720 106.746433
856     1 1 0.0 32.458029 -7.565958 104.387055
857     1 2 0.0 32.942626 -3.801231 109.466149
858     1 2 0.0 32.998310 -8.663159 102.429270
859     1 2 0.0 36.977873 -5.563233 104.739910
860     1 2 0.0 32.025632 -6.114878 105.229160
861     1 2 0.0 31.027081 -7.639367 105.322124
862     1 2 0.0 30.498836 -3.893175 108.500490
863     1 2 0.0 34.090724 -7.692553 104.828515
864     1 2 0.0 37.140814 -8.081245 102.991462
865     1 1 0.0 25.261019 1.477895 117.032776
866     1 1 0.0 29.178629 -4.313958 111.328156
867     1 1 0.0 25.022414 0.355970 113.845013
868     1 1 0.0 25.780184 -2.827399 111.485635
869     1 2 0.0 27.064780 0.744410 116.564729
870     1 2 0.0 26.071294 -4.015257 109.527850
871     1 2 0.0 30.625439 -1.845875 111.838490
872     1 2 0.0 25.670691 -1.317230 112.327740
873     1 2 0.0 24.367044 -2.590680 112.420704
874     1 2 0.0 24.658606 1.181321 115.599070
875     1 2 0.0 27.347223 -3.302904 111.927095
876     1 2 0.0 30.241860 -4.339828 110.090042
877     1 1 0.0 20.701479 7.555037 124.131356
878     1 1 0.0 23.278737 1.054963 118.426736
879     1 1 0.0 20.226680 6.510904 120.943593
880     1 1 0.0 20.280549 3.239031 118.584215
881     1 2 0.0 22.304765 6.450036 123.663309
882     1 2 0.0 20.308807 2.016348 116.626430
883     1 2 0.0 25.223476 3.153220 118.937070
884     1 2 0.0 20.499107 4.737307 119.426320
885     1 2 0.0 18.951638 3.774752 119.519284
886     1 2 0.0 20.049304 7.395267 122.697650
887     1 2 0.0 21.708278 2.436967 119.025675
888     1 2 0.0 24.311405 0.800550 117.188622
889     1 1 0.0 17.558862 14.472047 131.229936
890     1 1 0.0 18.674632 7.569273 125.525316
891     1 1 0.0 16.870186 13.554783 128.042173
892     1 1 0.0 16.217623 10.348193 125.682795
893     1 2 0.0 18.886316 13.047469 130.761889
894     1 2 0.0 15.981700 9.148155 123.725010
895     1 2 0.0 21.025891 9.199082 126.035650
896     1 2 0.0 16.753959 11.764154 126.524900
897     1 2 0.0 15.035405 11.157737 126.617864
898     1 2 0.0 16.887581 14.456591 129.796230
899     1 2 0.0 17.438935 9.257270 126.124255
900     1 2 0.0 19.628198 7.098275 124.287202
901     1 1 0.0 15.980882 21.903806 138.328516
902     1 1 0.0 15.582717 14.922782 132.623896
903     1 1 0.0 15.110699 21.156525 135.140753
904     1 1 0.0 13.782376 18.165938 132.781375
905     1 2 0.0 16.970108 20.226610 137.860469
906     1 2 0.0 13.293359 17.044949 130.823590
907     1 2 0.0 18.229981 16.007536 133.134230
908     1 2 0.0 14.611279 19.433028 133.623480
909     1 2 0.0 12.802416 19.211252 133.716444
910     1 2 0.0 15.322045 22.033391 136.894810
911     1 2 0.0 14.739865 16.837431 133.222835
912     1 2 0.0 16.412362 14.257337 131.385782
913     1 1 0.0 16.041707 29.501001 145.427096
914     1 1 0.0 14.148323 22.769855 139.722476
915     1 1 0.0 15.030917 28.958827 142.239333
916     1 1 0.0 13.089269 26.324808 139.879955
917     1 2 0.0 16.646209 27.650019 144.959049
918     1 2 0.0 12.370146 25.335559 137.922170
919     1 2 0.0 16.967162 23.258567 140.232810
920     1 2 0.0 14.171781 27.383471 140.722060
921     1 2 0.0 12.357630 27.556760 140.815024
922     1 2 0.0 15.426282 29.769535 143.993390
923     1 2 0.0 13.737931 24.821161 140.321415
924     1 2 0.0 14.815051 21.941240 138.484362
925     1 1 0.0 17.738478 36.906542 152.525676
926     1 1 0.0 14.438870 30.741656 146.821056
927     1 1 0.0 16.634593 36.594959 149.337913
928     1 1 0.0 14.170882 34.441314 146.978535
929     1 2 0.0 17.929843 34.968776 152.057629
930     1 2 0.0 13.255452 33.630302 145.020750
931     1 2 0.0 17.296791 30.611356 147.331390
932     1 2 0.0 15.456120 35.241791 147.820640
933     1 2 0.0 13.721953 35.801999 147.913604
934     1 2 0.0 17.195393 37.301403 151.091970
935     1 2 0.0 14.480228 32.833203 147.419995
936     1 2 0.0 14.911342 29.788819 145.582942
937     1 1 0.0 20.991443 43.772347 159.624256
938     1 1 0.0 16.440701 38.463489 153.919636
939     1 1 0.0 19.846347 43.706001 156.436493
940     1 1 0.0 16.976375 42.133958 154.077115
941     1 2 0.0 20.760676 41.838878 159.156209
942     1 2 0.0 15.907667 41.539302 152.119330
943     1 2 0.0 19.203375 37.720301 154.429970
944     1 2 0.0 18.403930 42.638623 154.919220
945     1 2 0.0 16.831256 43.559420 155.012184
946     1 2 0.0 20.546223 44.274977 158.190550
947     1 2 0.0 16.931865 40.496968 154.518575
948     1 2 0.0 16.696711 37.431216 152.681522
949     1 1 0.0 25.647703 49.775705 166.722836
950     1 1 0.0 20.059725 45.572406 161.018216
951     1 1 0.0 24.515219 49.957714 163.535073
952     1 1 0.0 21.373883 49.041163 161.175695
953     1 2 0.0 25.005651 47.937412 166.254789
954     1 2 0.0 20.202129 48.690815 159.217910
955     1 2 0.0 22.597297 44.251262 161.528550
956     1 2 0.0 22.876656 49.226295 162.017800
957     1 2 0.0 21.539396 50.464401 162.110764
958     1 2 0.0 25.321275 50.362478 165.289130
959     1 2 0.0 20.977609 47.452238 161.617155
960     1 2 0.0 20.087238 44.509217 159.780102
961     1 1 0.0 31.488401 54.634442 173.821416
962     1 1 0.0 25.125837 51.734268 168.116796
963     1 1 0.0 30.421758 55.056250 170.633653
964     1 1 0.0 27.156710 54.838272 168.274275
965     1 2 0.0 30.465242 52.977728 173.353369
966     1 2 0.0 25.936985 54.748698 166.316490
967     1 2 0.0 27.319034 49.897266 168.627130
968     1 2 0.0 28.664066 54.695170 169.116380
969     1 2 0.0 27.625074 56.192390 169.209344
970     1 2 0.0 31.296107 55.277778 172.387710
971     1 2 0.0 26.427297 53.372095 168.715735
972     1 2 0.0 24.923561 50.690135 166.878682
973     1 1 0.0 38.239007 58.120182 180.919996
974     1 1 0.0 31.400915 56.659450 175.215376
975     1 1 0.0 37.288342 58.761964 177.732233
976     1 1 0.0 34.053047 59.252804 175.372855
977     1 2 0.0 36.882832 56.722918 180.451949
978     1 2 0.0 32.842682 59.428215 173.415070
979     1 2 0.0 33.146652 54.392934 175.725710
980     1 2 0.0 35.494136 58.788194 176.214960
981     1 2 0.0 34.802249 60.474155 176.307924
982     1 2 0.0 38.189887 58.789842 179.486290
983     1 2 0.0 33.024781 57.978290 175.814315
984     1 2 0.0 30.978359 55.683451 173.977262
985     1 1 0.0 45.582224 60.069086 188.018576
986     1 1 0.0 38.590015 60.116455 182.313956
987     1 1 0.0 44.792220 60.900676 184.830813
988     1 1 0.0 41.738747 62.077264 182.471435
989     1 2 0.0 43.956778 58.996948 187.550529
990     1 2 0.0 40.594633 62.509415 180.513650
991     1 2 0.0 39.806237 57.526957 182.824290
992     1 2 0.0 43.045834 61.312984 183.313540
993     1 2 0.0 42.733572 63.108440 183.406504
994     1 2 0.0 45.678586 60.733595 186.584870
995     1 2 0.0 40.459959 61.054319 182.912895
996     1 2 0.0 37.967038 59.254464 181.075842
997     1 1 0.0 53.172900 60.389551 195.117156
998     1 1 0.0 46.355227 61.942793 189.412536
999     1 1 0.0 52.580690 61.371862 191.929393
1000    1 1 0.0 49.852561 63.178894 189.570015
1001    1 2 0.0 51.354583 59.692931 194.649109
1002    1 2 0.0 48.828474 63.847472 187.612230
1003    1 2 0.0 46.984768 59.152027 189.922870
1004    1 2 0.0 50.964209 62.150868 190.412120
1005    1 2 0.0 51.046249 63.971428 190.505084
1006    1 2 0.0 53.410215 61.017674 193.683450
1007    1 2 0.0 48.383357 62.455599 190.011475
1008    1 2 0.0 45.561111 61.235327 188.174422
1009    1 1 0.0 60.654253 59.066513 202.215736
1010    1 1 0.0 54.331565 62.052622 196.511116
1011    1 1 0.0 60.287672 60.153373 199.027973
1012    1 1 0.0 58.013116 62.505915 196.668595
1013    1 2 0.0 58.728531 58.778155 201.747689
1014    1 2 0.0 57.157191 63.379496 194.710810
1015    1 2 0.0 54.344834 59.191763 197.021450
1016    1 2 0.0 58.877075 61.262462 197.510700
1017    1 2 0.0 59.349560 63.022555 197.603664
1018    1 2 0.0 61.021366 59.628728 200.782030
1019    1 2 0.0 56.422553 62.116266 197.110055
1020    1 2 0.0 53.403637 61.532933 195.273002
1021    1 1 0.0 67.674637 56.162159 3.992440
1022    1 1 0.0 62.144119 60.440780 203.609696
1023    1 1 0.0 67.550916 57.302484 0.804677
1024    1 1 0.0 65.836843 60.089958 203.767175
1025    1 2 0.0 65.732024 56.295617 3.524393
1026    1 2 0.0 65.189311 61.127481 201.809390
1027    1 2 0.0 61.540493 57.644295 204.120030
1028    1 2 0.0 66.412504 58.689524 204.609280
1029    1 2 0.0 67.253228 60.306421 204.702244
1030    1 2 0.0 68.154293 56.632039 2.558734
1031    1 2 0.0 64.199682 60.052271 204.208635
1032    1 2 0.0 61.125993 60.133295 202.371582
1033    1 1 0.0 73.904075 51.813002 11.091020
1034    1 1 0.0 69.425677 57.183027 5.386400
1035    1 1 0.0 74.029028 52.953192 7.903257
1036    1 1 0.0 72.956006 56.044580 5.543879
1037    1 2 0.0 72.035880 52.362003 10.622973
1038    1 2 0.0 72.547303 57.197278 3.586094
1039    1 2 0.0 68.233528 54.582359 5.896734
1040    1 2 0.0 73.216311 54.552990 6.385984
1041    1 2 0.0 74.385756 55.950691 6.478948
1042    1 2 0.0 74.473729 52.168462 9.657314
1043    1 2 0.0 71.349198 56.360626 5.985339
1044    1 2 0.0 68.365207 57.102199 4.148286
1045    1 1 0.0 73.462220 43.783497 21.716257
1046    1 1 0.0 72.821284 49.007462 14.104235
1047    1 1 0.0 73.178582 44.951241 19.279158
1048    1 1 0.0 75.316724 47.612436 14.757540
1049    1 2 0.0 71.732081 44.431082 21.346408
1050    1 2 0.0 75.419016 48.794704 12.678344
1051    1 2 0.0 68.057450 46.737808 17.415039
1052    1 2 0.0 73.878311 46.317417 16.803451
1053    1 2 0.0 77.351064 47.287608 14.995572
1054    1 2 0.0 73.772445 44.140356 20.638380
1055    1 2 0.0 74.122198 48.027293 14.956504
1056    1 2 0.0 71.114898 49.068423 13.577580
1057    1 1 0.0 76.887746 38.477894 28.814837
1058    1 1 0.0 77.387761 43.717226 21.202815
1059    1 1 0.0 76.862450 39.679326 26.377738
1060    1 1 0.0 79.523894 41.817158 21.856120
1061    1 2 0.0 75.337837 39.483146 28.444988
1062    1 2 0.0 79.878589 42.949595 19.776924
1063    1 2 0.0 72.246720 42.527631 24.513619
1064    1 2 0.0 77.840178 40.862586 23.902031
1065    1 2 0.0 81.440416 41.061515 22.094152
1066    1 2 0.0 77.267592 38.759506 27.736960
1067    1 2 0.0 78.446852 42.479714 22.055084
1068    1 2 0.0 75.734617 44.144521 20.676160
1069    1 1 0.0 79.089284 32.558698 35.913417
1070    1 1 0.0 80.706749 37.567133 28.301395
1071    1 1 0.0 79.323520 33.737346 33.476318
1072    1 1 0.0 82.383169 35.251332 28.954700
1073    1 2 0.0 77.792456 33.874368 35.543568
1074    1 2 0.0 82.973596 36.280710 26.875504
1075    1 2 0.0 75.430144 37.513512 31.612199
1076    1 2 0.0 80.533290 34.682075 31.000611
1077    1 2 0.0 84.091792 34.100392 29.192732
1078    1 2 0.0 79.520897 32.751826 34.835540
1079    1 2 0.0 81.474236 36.130445 29.153664
1080    1 2 0.0 79.184548 38.340678 27.774740
1081    1 1 0.0 79.963355 26.304128 43.011997
1082    1 1 0.0 82.622244 30.846255 35.399975
1083    1 1 0.0 80.446113 27.404593 40.574898
1084    1 1 0.0 83.760156 28.223570 36.053280
1085    1 2 0.0 78.980563 27.868374 42.642148
1086    1 2 0.0 84.558562 29.101506 33.974084
1087    1 2 0.0 77.458090 31.931129 38.710779
1088    1 2 0.0 81.831064 28.066385 38.099191
1089    1 2 0.0 85.180569 26.731431 36.291312
1090    1 2 0.0 80.426448 26.399694 41.934120
1091    1 2 0.0 83.062054 29.277920 36.252244
1092    1 2 0.0 81.302534 31.929691 34.873320
1093    1 1 0.0 79.468876 20.008166 50.110577
1094    1 1 0.0 83.044214 23.870493 42.498555
1095    1 1 0.0 80.177465 20.978722 47.673478
1096    1 1 0.0 83.590133 21.064198 43.151860
1097    1 2 0.0 78.846313 21.747465 49.740728
1098    1 2 0.0 84.558991 21.749425 41.072664
1099    1 2 0.0 78.235241 26.042868 45.809359
1100    1 2 0.0 81.672499 21.326472 45.197771
1101    1 2 0.0 84.655572 19.300993 43.389892
1102    1 2 0.0 79.941683 20.001679 49.032700
1103    1 2 0.0 83.135674 22.244227 43.350824
1104    1 2 0.0 81.989025 25.212896 41.971900
1105    1 1 0.0 77.629089 13.966740 57.209157
1106    1 1 0.0 81.952824 16.967727 49.597135
1107    1 1 0.0 78.530202 14.761769 54.772058
1108    1 1 0.0 81.881090 14.109725 50.250440
1109    1 2 0.0 77.396017 15.799340 56.839308
1110    1 2 0.0 82.974861 14.570036 48.171244
1111    1 2 0.0 77.725067 20.125496 52.907939
1112    1 2 0.0 80.065050 14.779130 52.296351
1113    1 2 0.0 82.541477 12.158330 50.488472
1114    1 2 0.0 78.089386 13.858504 56.131280
1115    1 2 0.0 81.691636 15.359968 50.449404
1116    1 2 0.0 81.211754 18.505999 49.070480
1117    1 1 0.0 74.530468 8.463813 64.307737
1118    1 1 0.0 79.399373 10.462405 56.695715
1119    1 1 0.0 75.581752 9.045947 61.870638
1120    1 1 0.0 78.713358 7.687031 57.349020
1121    1 2 0.0 74.697843 10.303578 63.937888
1122    1 2 0.0 79.880632 7.900791 55.269824
1123    1 2 0.0 75.951549 14.457145 60.006519
1124    1 2 0.0 77.084270 8.732104 59.394931
1125    1 2 0.0 78.937653 5.639167 57.587052
1126    1 2 0.0 74.956620 8.258916 63.229860
1127    1 2 0.0 78.797813 8.948723 57.547984
1128    1 2 0.0 79.007253 12.124244 56.169060
1129    1 1 0.0 70.318658 3.758040 71.406317
1130    1 1 0.0 75.503881 4.660297 63.794295
1131    1 1 0.0 71.470699 4.099916 68.969218
1132    1 1 0.0 74.235828 2.098001 64.447600
1133    1 2 0.0 70.878612 5.518494 71.036468
1134    1 2 0.0 75.421741 2.055162 62.368404
1135    1 2 0.0 72.998046 9.304243 67.105099
1136    1 2 0.0 72.870265 3.469620 66.493511
1137    1 2 0.0 74.013490 0.049924 64.685632
1138    1 2 0.0 70.690634 3.466112 70.328440
1139    1 2 0.0 74.590224 3.311839 64.646564
1140    1 2 0.0 75.479142 6.367592 63.267640
1141    1 1 0.0 65.191625 0.070604 78.504897
1142    1 1 0.0 70.449446 -0.165882 70.892875
1143    1 1 0.0 66.390274 0.156153 76.067798
1144    1 1 0.0 68.658959 -2.394665 71.546180
1145    1 2 0.0 66.117839 1.669002 78.135048
1146    1 2 0.0 69.807767 -2.692090 69.466984
1147    1 2 0.0 69.003383 4.908991 74.203679
1148    1 2 0.0 67.621104 -0.760969 73.592091
1149    1 2 0.0 68.000436 -4.346690 71.784212
1150    1 2 0.0 65.491942 -0.294633 77.427020
1151    1 2 0.0 69.266636 -1.285734 71.745144
1152    1 2 0.0 70.793251 1.506621 70.366220
1153    1 1 0.0 59.390355 -2.425175 85.603477
1154    1 1 0.0 64.473641 -3.789288 77.991455
1155    1 1 0.0 60.579271 -2.599973 83.166378
1156    1 1 0.0 62.244877 -5.579800 78.644760
1157    1 2 0.0 60.639294 -1.063963 85.233628
1158    1 2 0.0 63.302585 -6.117830 76.565564
1159    1 2 0.0 64.155318 1.477979 81.302259
1160    1 2 0.0 61.583514 -3.760815 80.690671
1161    1 2 0.0 61.181123 -7.344022 78.882792
1162    1 2 0.0 59.604897 -2.846553 84.525600
1163    1 2 0.0 63.077275 -4.627899 78.843724
1164    1 2 0.0 65.169831 -2.230190 77.464800
1165    1 1 0.0 53.187523 -3.611988 92.702057
1166    1 1 0.0 57.857346 -6.039612 85.090035
1167    1 1 0.0 54.310825 -4.038918 90.264958
1168    1 1 0.0 55.295063 -7.307692 85.743340
1169    1 2 0.0 54.700484 -2.551942 92.332208
1170    1 2 0.0 56.211955 -8.061039 83.664144
1171    1 2 0.0 58.681725 -0.827526 88.400839
1172    1 2 0.0 55.041277 -5.388917 87.789251
1173    1 2 0.0 53.876077 -8.801188 85.981372
1174    1 2 0.0 53.306206 -4.069702 91.624180
1175    1 2 0.0 56.313055 -6.557564 85.942304
1176    1 2 0.0 58.873197 -4.667200 84.563380
1177    1 1 0.0 46.874680 -3.434051 99.800637
1178    1 1 0.0 50.911545 -6.811080 92.188615
1179    1 1 0.0 47.879569 -4.093046 97.363538
1180    1 1 0.0 48.136178 -7.497126 92.841920
1181    1 2 0.0 48.580549 -2.724997 99.430788
1182    1 2 0.0 48.869158 -8.430380 90.762724
1183    1 2 0.0 52.839878 -1.899159 95.499419
1184    1 2 0.0 48.301898 -5.568748 94.887831
1185    1 2 0.0 46.428656 -8.649698 93.079952
1186    1 2 0.0 46.891925 -3.906588 98.722760
1187    1 2 0.0 49.291916 -6.984028 93.040884
1188    1 2 0.0 52.199309 -5.689862 91.661960
1189    1 1 0.0 40.748547 -1.899729 106.899217
1190    1 1 0.0 43.962710 -6.067433 99.287195
1191    1 1 0.0 41.587791 -2.759814 104.462118
1192    1 1 0.0 41.104709 -6.139199 99.940500
1193    1 2 0.0 42.567144 -1.574994 106.529368
1194    1 2 0.0 41.619324 -7.208494 97.861304
1195    1 2 0.0 46.904361 -1.686551 102.597999
1196    1 2 0.0 41.682146 -4.291857 101.986411
1197    1 2 0.0 39.188909 -6.896672 100.178532
1198    1 2 0.0 40.663544 -2.364877 105.821340
1199    1 2 0.0 42.343871 -5.887248 100.139464
1200    1 2 0.0 45.461859 -5.250109 98.760540
1201    1 1 0.0 35.097070 0.918862 113.997797
1202    1 1 0.0 37.337456 -3.843624 106.385775
1203    1 1 0.0 35.731221 -0.101887 111.560698
1204    1 1 0.0 34.531155 -3.297736 107.039080
1205    1 2 0.0 36.942915 0.844014 113.627948
1206    1 2 0.0 34.803217 -4.452813 104.959884
1207    1 2 0.0 41.154158 -0.199694 109.696579
1208    1 2 0.0 35.493167 -1.618260 109.084991
1209    1 2 0.0 32.497126 -3.624507 107.277112
1210    1 2 0.0 34.913814 0.482966 112.919920
1211    1 2 0.0 35.795496 -3.318775 107.238044
1212    1 2 0.0 38.977526 -3.368610 105.859120
1213    1 1 0.0 30.185883 4.889240 121.096377
1214    1 1 0.0 31.347189 -0.244178 113.484355
1215    1 1 0.0 30.585136 3.755805 118.659278
1216    1 1 0.0 28.724492 0.893706 114.137660
1217    1 2 0.0 31.972217 4.418328 120.726528
1218    1 2 0.0 28.741213 -0.292862 112.058464
1219    1 2 0.0 35.859546 2.491525 116.795159
1220    1 2 0.0 30.025862 2.326375 116.183571
1221    1 2 0.0 26.667838 1.012996 114.375692
1222    1 2 0.0 29.912989 4.503084 120.018500
1223    1 2 0.0 29.954584 0.600665 114.336624
1224    1 2 0.0 33.051092 -0.133801 112.957700
1225    1 1 0.0 26.245828 9.824786 128.194957
1226    1 1 0.0 26.273467 4.561721 120.582935
1227    1 1 0.0 26.391415 8.631939 125.757858
1228    1 1 0.0 23.957648 6.238117 121.236240
1229    1 2 0.0 27.888688 8.979943 127.825108
1230    1 2 0.0 23.718243 5.075831 119.157044
1231    1 2 0.0 31.269387 6.260611 123.893739
1232    1 2 0.0 25.537209 7.356640 123.282151
1233    1 2 0.0 21.975039 6.797861 121.474272
1234    1 2 0.0 25.896120 9.506520 127.117080
1235    1 2 0.0 25.095674 5.686849 121.435204
1236    1 2 0.0 27.961115 4.302272 120.056280
1237    1 1 0.0 23.462096 15.493515 135.293537
1238    1 1 0.0 22.354771 10.348182 127.681515
1239    1 1 0.0 23.347175 14.297324 132.856438
1240    1 1 0.0 20.454680 12.484295 128.334820
1241    1 2 0.0 24.884263 14.314451 134.923688
1242    1 2 0.0 19.970401 11.400922 126.255624
1243    1 2 0.0 27.599430 10.930406 130.992319
1244    1 2 0.0 22.238187 13.236098 130.380731
1245    1 2 0.0 18.639303 13.458184 128.572852
1246    1 2 0.0 23.052014 15.258099 134.215660
1247    1 2 0.0 21.447149 11.700710 128.533784
1248    1 2 0.0 23.946839 9.731103 127.154860
1249    1 1 0.0 21.965532 21.628981 142.392117
1250    1 1 0.0 19.775289 16.843226 134.780095
1251    1 1 0.0 21.595504 20.485671 139.955018
1252    1 1 0.0 18.380236 19.338651 135.433400
1253    1 2 0.0 23.100160 20.171116 142.022268
1254    1 2 0.0 17.673846 18.385113 133.354204
1255    1 2 0.0 25.022175 16.281418 138.090899
1256    1 2 0.0 20.283859 19.688398 137.479311
1257    1 2 0.0 16.817419 20.680909 135.671432
1258    1 2 0.0 21.514349 21.487480 141.314240
1259    1 2 0.0 19.180500 18.359582 135.632364
1260    1 2 0.0 21.196946 15.897520 134.253440
1261    1 1 0.0 21.826478 27.942800 149.490697
1262    1 1 0.0 18.656265 23.741567 141.878675
1263    1 1 0.0 21.218736 26.906109 147.053598
1264    1 1 0.0 17.831821 26.479013 142.531980
1265    1 2 0.0 22.620236 26.274658 149.120848
1266    1 2 0.0 16.936522 25.700128 140.452784
1267    1 2 0.0 23.658758 22.062133 145.189479
1268    1 2 0.0 19.766085 26.410264 144.577891
1269    1 2 0.0 16.595021 28.126550 142.770012
1270    1 2 0.0 21.355402 27.901865 148.412820
1271    1 2 0.0 18.402265 25.350477 142.730944
1272    1 2 0.0 19.840688 22.511685 141.352020
1273    1 1 0.0 23.051470 34.138205 156.589277
1274    1 1 0.0 19.050295 30.718963 148.977255
1275    1 1 0.0 22.234579 33.256860 154.152178
1276    1 1 0.0 18.835212 33.569763 149.630560
1277    1 2 0.0 23.467049 32.338193 156.219428
1278    1 2 0.0 17.793085 33.002140 147.551364
1279    1 2 0.0 23.573266 28.000842 152.288059
1280    1 2 0.0 20.709201 33.085749 151.676471
1281    1 2 0.0 17.982562 35.445140 149.868592
1282    1 2 0.0 22.582642 34.199760 155.511400
1283    1 2 0.0 19.149023 32.344804 149.829524
1284    1 2 0.0 19.941815 29.262714 148.450600
1285    1 1 0.0 25.582929 39.923994 163.687857
1286    1 1 0.0 20.938861 37.447457 156.075835
1287    1 1 0.0 24.595286 39.239422 161.250758
1288    1 1 0.0 21.343247 40.277615 156.729140
1289    1 2 0.0 25.600797 38.076718 163.318008
1290    1 2 0.0 20.203275 39.947936 154.649944
1291    1 2 0.0 24.769715 33.818409 159.386639
1292    1 2 0.0 23.068878 39.401088 158.775051
1293    1 2 0.0 20.914823 42.292685 156.967172
1294    1 2 0.0 25.138387 40.085146 162.609980
1295    1 2 0.0 21.385676 39.013811 156.928104
1296    1 2 0.0 21.495572 35.833289 155.549180
1297    1 1 0.0 29.301871 45.028220 170.786437
1298    1 1 0.0 24.233192 43.610792 163.174415
1299    1 1 0.0 28.189898 44.572597 168.349338
1300    1 1 0.0 25.238041 46.287282 163.827720
1301    1 2 0.0 28.921187 43.220507 170.416588
1302    1 2 0.0 24.053807 46.211042 161.748524
1303    1 2 0.0 27.191870 39.241392 166.485219
1304    1 2 0.0 26.734205 45.059440 165.873631
1305    1 2 0.0 25.253982 48.347331 164.065752
1306    1 2 0.0 28.902508 45.281394 169.708560
1307    1 2 0.0 25.007093 45.044035 164.026684
1308    1 2 0.0 24.428928 41.914574 162.647760
1309    1 1 0.0 34.033495 49.210969 177.885017
1310    1 1 0.0 28.778447 48.919273 170.272995
1311    1 1 0.0 32.849457 49.005710 175.447918
1312    1 1 0.0 30.336528 51.316293 170.926300
1313    1 2 0.0 33.272152 47.527786 177.515168
1314    1 2 0.0 29.163694 51.497075 168.847104
1315    1 2 0.0 30.725883 44.014894 173.583799
1316    1 2 0.0 31.532901 49.794848 172.972211
1317    1 2 0.0 30.796084 53.324492 171.164332
1318    1 2 0.0 33.698082 49.544265 176.807140
1319    1 2 0.0 29.843058 50.152039 171.125264
1320    1 2 0.0 28.604008 47.220733 169.746340
1321    1 1 0.0 39.555401 52.275640 184.983597
1322    1 1 0.0 34.360987 53.123387 177.371575
1323    1 1 0.0 38.354951 52.330393 182.546498
1324    1 1 0.0 36.399065 55.128271 178.024880
1325    1 2 0.0 38.449184 50.796101 184.613748
1326    1 2 0.0 35.292757 55.557578 175.945684
1327    1 2 0.0 35.205644 47.914549 180.682379
1328    1 2 0.0 37.239414 53.384734 180.070791
1329    1 2 0.0 37.280635 56.990229 178.262912
1330    1 2 0.0 39.299704 52.673393 183.905720
1331    1 2 0.0 35.666268 54.097732 178.223844
1332    1 2 0.0 33.824571 51.502361 176.844920
1333    1 1 0.0 45.608043 54.078185 192.082177
1334    1 1 0.0 40.718415 56.025529 184.470155
1335    1 1 0.0 44.447606 54.390377 189.645078
1336    1 1 0.0 43.140695 57.544040 185.123460
1337    1 2 0.0 44.208949 52.871834 191.712328
1338    1 2 0.0 42.152913 58.201694 183.044264
1339    1 2 0.0 40.420593 50.757062 187.780959
1340    1 2 0.0 43.585522 55.660364 187.169371
1341    1 2 0.0 44.402843 59.172240 185.361492
1342    1 2 0.0 45.444081 54.521699 191.004300
1343    1 2 0.0 42.203015 56.695656 185.322424
1344    1 2 0.0 39.845236 54.558209 183.943500
1345    1 1 0.0 51.906931 54.533879 199.180757
1346    1 1 0.0 47.551915 57.489289 191.568735
1347    1 1 0.0 50.841051 55.088836 196.743658
1348    1 1 0.0 50.244544 58.450054 192.222040
1349    1 2 0.0 50.280720 53.657417 198.810908
1350    1 2 0.0 49.421715 59.305143 190.142844
1351    1 2 0.0 46.125613 52.408826 194.879539
1352    1 2 0.0 50.272939 56.514777 194.267951
1353    1 2 0.0 51.827945 59.767967 192.460072
1354    1 2 0.0 51.842410 55.002308 198.102880
1355    1 2 0.0 49.146053 57.823701 192.421004
1356    1 2 0.0 46.383015 56.244644 191.042080
1357    1 1 0.0 58.155999 53.621304 0.957461
1358    1 1 0.0 54.540293 57.445867 198.667315
1359    1 1 0.0 57.234775 54.392942 203.842238
1360    1 1 0.0 57.376709 57.803728 199.320620
1361    1 2 0.0 56.379108 53.115927 0.587612
1362    1 2 0.0 56.757510 58.816059 197.241424
1363    1 2 0.0 52.052551 52.792204 201.978119
1364    1 2 0.0 56.987339 55.907812 201.366531
1365    1 2 0.0 59.206940 58.749407 199.558652
1366    1 2 0.0 58.193952 54.092630 205.201460
1367    1 2 0.0 56.169041 57.428845 199.519584
1368    1 2 0.0 53.130614 56.482399 198.140660
1369    1 1 0.0 64.061524 51.383354 8.056041
1370    1 1 0.0 61.355076 55.897304 0.444019
1371    1 1 0.0 63.328256 52.335402 5.618942
1372    1 1 0.0 64.201960 55.635440 1.097324
1373    1 2 0.0 62.217472 51.272816 7.686192
1374    1 2 0.0 63.815495 56.757432 204.340004
1375    1 2 0.0 57.922825 51.889177 3.754823
1376    1 2 0.0 63.413126 53.867999 3.143235
1377    1 2 0.0 66.192994 56.164435 1.335356
1378    1 2 0.0 64.200167 51.835423 6.978164
1379    1 2 0.0 62.941877 55.529649 1.296288
1380    1 2 0.0 59.770876 55.260298 205.239240
1381    1 1 0.0 69.345930 47.925217 15.154621
1382    1 1 0.0 67.675950 52.916387 7.542599
1383    1 1 0.0 68.835083 49.012927 12.717522
1384    1 1 0.0 70.399491 52.047106 8.195904
1385    1 2 0.0 67.521391 48.214714 14.784772
1386    1 2 0.0 70.263924 53.226022 6.116708
1387    1 2 0.0 63.460515 49.742188 10.853403
1388    1 2 0.0 69.248270 50.491215 10.241815
1389    1 2 0.0 72.457744 52.134554 8.433936
1390    1 2 0.0 69.578746 48.336781 14.076744
1391    1 2 0.0 69.146221 52.215379 8.394868
1392    1 2 0.0 65.991691 52.635785 7.015944
1393    1 1 0.0 75.032105 55.874957 22.494807
1394    1 1 0.0 66.974124 61.691489 19.741447
1395    1 1 0.0 75.278906 56.254410 18.897643
1396    1 1 0.0 70.873620 59.897346 19.709922
1397    1 2 0.0 73.381262 56.698945 21.669597
1398    1 2 0.0 69.774153 60.703946 18.279638
1399    1 2 0.0 69.747499 58.852725 16.140294
1400    1 2 0.0 73.112971 58.118104 18.622145
1401    1 2 0.0 70.965560 60.066192 22.117661
1402    1 2 0.0 75.604941 55.779122 20.934546
1403    1 2 0.0 69.227761 60.638728 20.158264
1404    1 2 0.0 66.941932 61.386085 17.297792
1405    1 1 0.0 81.026734 49.946841 29.593387
1406    1 1 0.0 74.411727 57.363362 26.840027
1407    1 1 0.0 81.349516 50.264184 25.996223
1408    1 1 0.0 77.832899 54.770950 26.808502
1409    1 2 0.0 79.592277 51.107260 28.768177
1410    1 2 0.0 76.933113 55.795555 25.378218
1411    1 2 0.0 76.508102 53.993585 23.238874
1412    1 2 0.0 79.636154 52.550889 25.720725
1413    1 2 0.0 77.959069 54.916012 29.216241
1414    1 2 0.0 81.565452 49.729798 28.033126
1415    1 2 0.0 76.385505 55.849630 27.256844
1416    1 2 0.0 74.314469 57.072074 24.396372
1417    1 1 0.0 85.602830 42.866058 36.691967
1418    1 1 0.0 80.741722 51.533972 33.938607
1419    1 1 0.0 85.986421 43.106377 33.094803
1420    1 1 0.0 83.523766 48.265142 33.907082
1421    1 2 0.0 84.452183 44.308365 35.866757
1422    1 2 0.0 82.865952 49.459592 32.476798
1423    1 2 0.0 82.062563 47.791571 30.337454
1424    1 2 0.0 84.806165 45.708611 32.819305
1425    1 2 0.0 83.678234 48.379602 36.314821
1426    1 2 0.0 86.082110 42.538010 35.131706
1427    1 2 0.0 82.342868 49.630419 34.355424
1428    1 2 0.0 80.583970 51.270491 31.494952
1429    1 1 0.0 88.545305 34.965427 43.790547
1430    1 1 0.0 85.666581 44.477317 41.037187
1431    1 1 0.0 88.971675 35.117424 40.193383
1432    1 1 0.0 87.678732 40.685712 41.005662
1433    1 2 0.0 87.732551 36.621829 42.965337
1434    1 2 0.0 87.293811 41.993866 39.575378
1435    1 2 0.0 86.149804 40.538195 37.436034
1436    1 2 0.0 88.380000 37.912875 39.917885
1437    1 2 0.0 87.854239 40.764191 43.413401
1438    1 2 0.0 88.942619 34.541792 42.230286
1439    1 2 0.0 86.819837 42.273415 41.454004
1440    1 2 0.0 85.455750 44.254027 38.593532
1441    1 1 0.0 89.715853 26.616298 50.889127
1442    1 1 0.0 88.954822 36.525078 48.135767
1443    1 1 0.0 90.164963 26.672830 47.291963
1444    1 1 0.0 90.102504 32.388915 48.104242
1445    1 2 0.0 89.279195 28.408940 50.063917
1446    1 2 0.0 90.008567 33.749285 46.673958
1447    1 2 0.0 88.577714 32.574386 44.534614
1448    1 2 0.0 90.189679 29.530105 47.016465
1449    1 2 0.0 90.290800 32.427724 50.511981
1450    1 2 0.0 90.012527 26.116988 49.328866
1451    1 2 0.0 89.605982 34.124417 48.552584
1452    1 2 0.0 88.700822 36.352475 45.692112
1453    1 1 0.0 89.059457 18.211104 57.987707
1454    1 1 0.0 90.451889 28.051035 55.234347
1455    1 1 0.0 89.510196 18.169514 54.390543
1456    1 1 0.0 90.681157 23.764725 55.202822
1457    1 2 0.0 89.019417 20.055727 57.162497
1458    1 2 0.0 90.882620 25.113370 53.772538
1459    1 2 0.0 89.232175 24.274465 51.633194
1460    1 2 0.0 90.150141 20.954312 54.115045
1461    1 2 0.0 90.873392 23.762039 57.610561
1462    1 2 0.0 89.241545 17.659589 56.427446
1463    1 2 0.0 90.570346 25.566452 55.651164
1464    1 2 0.0 90.166658 27.937231 52.790692
1465    1 1 0.0 86.606968 10.144913 65.086287
1466    1 1 0.0 90.087414 19.453490 62.332927
1467    1 1 0.0 87.038150 10.007156 61.489123
1468    1 1 0.0 89.387493 15.218501 62.301402
1469    1 2 0.0 86.965429 11.954815 64.261077
1470    1 2 0.0 89.874886 16.492031 60.871118
1471    1 2 0.0 88.082425 16.028551 58.731774
1472    1 2 0.0 88.263246 12.588583 61.213625
1473    1 2 0.0 89.574631 15.174447 64.709141
1474    1 2 0.0 86.665912 9.567115 63.526026
1475    1 2 0.0 89.667601 17.001768 62.749744
1476    1 2 0.0 89.784359 19.403834 59.889272
1477    1 1 0.0 82.473660 2.796859 72.184867
1478    1 1 0.0 87.878530 11.136552 69.431507
1479    1 1 0.0 82.865019 2.569409 68.587703
1480    1 1 0.0 86.282317 7.151941 69.399982
1481    1 2 0.0 83.213774 4.486968 71.359657
1482    1 2 0.0 87.032732 8.290497 67.969698
1483    1 2 0.0 85.182506 8.224227 65.830354
1484    1 2 0.0 84.617682 4.826132 68.312205
1485    1 2 0.0 86.455563 7.068590 71.807721
1486    1 2 0.0 82.406690 2.219936 70.624606
1487    1 2 0.0 86.940179 8.832929 69.848324
1488    1 2 0.0 87.571896 11.153379 66.987852
1489    1 1 0.0 76.853810 -3.487680 79.283447
1490    1 1 0.0 83.929061 3.491141 76.530087
1491    1 1 0.0 77.186951 -3.794131 75.686283
1492    1 1 0.0 81.511583 -0.055804 76.498562
1493    1 2 0.0 77.940789 -1.996802 78.458237
1494    1 2 0.0 82.489747 0.894262 75.068278
1495    1 2 0.0 80.668721 1.228317 72.928934
1496    1 2 0.0 79.384802 -1.968185 75.410785
1497    1 2 0.0 81.662793 -0.174535 78.906301
1498    1 2 0.0 76.664073 -4.036611 77.723186
1499    1 2 0.0 82.516276 1.443893 76.946904
1500    1 2 0.0 83.633259 3.573660 74.086432
1501    1 1 0.0 70.011568 -8.413312 86.382027
1502    1 1 0.0 78.424641 -3.123388 83.628667
1503    1 1 0.0 70.270831 -8.784361 82.784863
1504    1 1 0.0 75.299526 -6.065951 83.597142
1505    1 2 0.0 71.394321 -7.191742 85.556817
1506    1 2 0.0 76.459464 -5.349031 82.166858
1507    1 2 0.0 74.753232 -4.630351 80.027514
1508    1 2 0.0 72.810564 -7.475016 82.509365
1509    1 2 0.0 75.421593 -6.214481 86.004881
1510    1 2 0.0 69.707982 -8.908449 84.821766
1511    1 2 0.0 76.603829 -4.818034 84.045484
1512    1 2 0.0 78.153576 -2.979056 81.185012
1513    1 1 0.0 62.268537 -11.748519 93.480607
1514    1 1 0.0 71.623995 -8.396133 90.727247
1515    1 1 0.0 62.441737 -12.166725 89.883443
1516    1 1 0.0 67.938133 -10.596005 90.695722
1517    1 2 0.0 63.882070 -10.853674 92.655397
1518    1 2 0.0 69.225324 -10.145927 89.265438
1519    1 2 0.0 67.714083 -9.076404 87.126094
1520    1 2 0.0 65.203978 -11.435525 89.607945
1521    1 2 0.0 68.025319 -10.767353 93.103461
1522    1 2 0.0 61.865372 -12.166590 91.920346
1523    1 2 0.0 69.480738 -9.658524 91.144064
1524    1 2 0.0 71.390407 -8.196772 88.283592
1525    1 1 0.0 53.988661 -13.336536 100.579187
1526    1 1 0.0 63.846772 -12.079260 97.825827
1527    1 1 0.0 54.067658 -13.782244 96.982023
1528    1 1 0.0 59.773408 -13.433041 97.794302
1529    1 2 0.0 55.757135 -12.810476 99.753977
1530    1 2 0.0 61.127351 -13.270961 96.364018
1531    1 2 0.0 59.882134 -11.900865 94.224674
1532    1 2 0.0 56.922573 -13.663555 96.706525
1533    1 2 0.0 59.821616 -13.619153 100.202041
1534    1 2 0.0 53.504867 -13.657891 99.018926
1535    1 2 0.0 61.481809 -12.850060 98.242644
1536    1 2 0.0 63.661641 -11.834240 95.382172
1537    1 1 0.0 45.561119 -13.102724 107.677767
1538    1 1 0.0 55.458523 -13.999652 104.924407
1539    1 1 0.0 45.542199 -13.554982 104.080603
1540    1 1 0.0 51.189117 -14.443710 104.892882
1541    1 2 0.0 47.401409 -12.970175 106.852557
1542    1 2 0.0 52.546172 -14.577247 103.462598
1543    1 2 0.0 51.625508 -12.970976 101.323254
1544    1 2 0.0 48.355599 -14.054385 103.805105
1545    1 2 0.0 51.196081 -14.635838 107.300621
1546    1 2 0.0 45.019435 -13.312257 106.117506
1547    1 2 0.0 52.983015 -14.242632 105.341224
1548    1 2 0.0 55.330551 -13.720491 102.480752
1549    1 1 0.0 37.382028 -11.058070 114.776347
1550    1 1 0.0 46.853520 -14.067046 112.022987
1551    1 1 0.0 37.266080 -11.495622 111.179183
1552    1 1 0.0 42.588746 -13.580509 111.991462
1553    1 2 0.0 39.207636 -11.325263 113.951137
1554    1 2 0.0 43.885128 -14.003385 110.561178
1555    1 2 0.0 43.332290 -12.236439 108.421834
1556    1 2 0.0 39.905728 -12.589643 110.903685
1557    1 2 0.0 42.554138 -13.769623 114.399201
1558    1 2 0.0 36.807915 -11.145933 113.216086
1559    1 2 0.0 44.383822 -13.770784 112.439804
1560    1 2 0.0 46.788721 -13.766864 109.579332
1561    1 1 0.0 29.835829 -7.298681 121.874927
1562    1 1 0.0 38.436222 -12.278272 119.121567
1563    1 1 0.0 29.628303 -7.700960 118.277763
1564    1 1 0.0 34.376536 -10.884010 119.090042
1565    1 2 0.0 31.560946 -7.953056 121.049717
1566    1 2 0.0 35.551311 -11.576349 117.659758
1567    1 2 0.0 35.392285 -9.731779 115.520414
1568    1 2 0.0 31.970128 -9.338177 118.002265
1569    1 2 0.0 34.301982 -11.061220 121.497781
1570    1 2 0.0 29.256272 -7.260744 120.314666
1571    1 2 0.0 36.088416 -11.456694 119.538384
1572    1 2 0.0 38.437642 -11.971179 116.677912
1573    1 1 0.0 23.277213 -2.001257 128.973507
1574    1 1 0.0 30.602265 -8.717410 126.220147
1575    1 1 0.0 22.987864 -2.349355 125.376343
1576    1 1 0.0 26.938484 -6.480956 126.188622
1577    1 2 0.0 24.820755 -3.012057 128.148297
1578    1 2 0.0 27.936435 -7.410216 124.758338
1579    1 2 0.0 28.178694 -5.574722 122.618994
1580    1 2 0.0 24.921794 -4.452814 125.100845
1581    1 2 0.0 26.827489 -6.637934 128.596361
1582    1 2 0.0 22.719453 -1.839303 127.413246
1583    1 2 0.0 28.486705 -7.409133 126.636964
1584    1 2 0.0 30.669837 -8.417840 123.776492
1585    1 1 0.0 18.014455 4.585208 136.072087
1586    1 1 0.0 23.719867 -3.551829 133.318727
1587    1 1 0.0 17.656882 4.307652 132.474923
1588    1 1 0.0 20.624199 -0.578304 133.287202
1589    1 2 0.0 19.303870 3.265493 135.246877
1590    1 2 0.0 21.398419 -1.700807 131.856918
1591    1 2 0.0 22.030578 0.039338 129.717574
1592    1 2 0.0 19.092017 1.836819 132.199425
1593    1 2 0.0 20.481981 -0.707670 135.694941
1594    1 2 0.0 17.504708 4.863566 134.511826
1595    1 2 0.0 21.935991 -1.818345 133.735544
1596    1 2 0.0 23.850416 -3.273863 130.875072
1597    1 1 0.0 14.294919 12.151130 143.170667
1598    1 1 0.0 18.112521 2.975673 140.417307
1599    1 1 0.0 13.885930 11.957163 139.573503
1600    1 1 0.0 15.730471 6.546507 140.385782
1601    1 2 0.0 15.269601 10.584531 142.345457
1602    1 2 0.0 16.244570 5.283521 138.955498
1603    1 2 0.0 17.236914 6.846525 136.816154
1604    1 2 0.0 14.754813 9.235093 139.298005
1605    1 2 0.0 15.563713 6.450833 142.793521
1606    1 2 0.0 13.857144 12.532809 141.610406
1607    1 2 0.0 16.744175 5.052886 140.834124
1608    1 2 0.0 18.299910 3.218970 137.973652
1609    1 1 0.0 12.293433 20.340892 150.269247
1610    1 1 0.0 14.043787 10.558287 147.515887
1611    1 1 0.0 11.852251 20.239630 146.672083
1612    1 1 0.0 12.487318 14.558589 147.484362
1613    1 2 0.0 12.907569 18.601043 149.444037
1614    1 2 0.0 12.717131 13.214485 146.054078
1615    1 2 0.0 14.023019 14.526883 143.914734
1616    1 2 0.0 12.114044 17.394267 146.396585
1617    1 2 0.0 12.303859 14.501104 149.892101
1618    1 2 0.0 11.948207 20.807951 148.708986
1619    1 2 0.0 13.155288 12.881593 147.932704
1620    1 2 0.0 14.279208 10.755479 145.072232
1621    1 1 0.0 12.104073 28.769550 157.367827
1622    1 1 0.0 11.704907 18.839607 154.614467
1623    1 1 0.0 11.651435 28.765753 153.770663
1624    1 1 0.0 11.047178 23.081353 154.582942
1625    1 2 0.0 12.328797 26.938229 156.542617
1626    1 2 0.0 10.981904 21.719307 153.152658
1627    1 2 0.0 12.539954 22.719411 151.013314
1628    1 2 0.0 11.293832 25.930837 153.495165
1629    1 2 0.0 10.855641 23.064758 156.990681
1630    1 2 0.0 11.867623 29.300037 155.807566
1631    1 2 0.0 11.338018 21.299805 155.031284
1632    1 2 0.0 11.977296 18.981426 152.170812
1633    1 1 0.0 13.735739 37.040934 164.466407
1634    1 1 0.0 11.205816 27.430389 161.713047
1635    1 1 0.0 13.292921 37.134781 160.869243
1636    1 1 0.0 11.477741 31.714204 161.681522
1637    1 2 0.0 13.560489 35.204218 163.641197
1638    1 2 0.0 11.120448 30.398236 160.251238
1639    1 2 0.0 12.857428 31.039040 158.111894
1640    1 2 0.0 12.332730 34.443562 160.593745
1641    1 2 0.0 11.287129 31.739280 164.089261
1642    1 2 0.0 13.619179 37.609915 162.906146
1643    1 2 0.0 11.377780 29.911842 162.129864
1644    1 2 0.0 11.502368 27.510169 159.269392
1645    1 1 0.0 17.111739 44.766267 171.564987
1646    1 1 0.0 12.569971 35.926841 168.811627
1647    1 1 0.0 16.699553 44.953346 167.967823
1648    1 1 0.0 13.758770 40.051375 168.780102
1649    1 2 0.0 16.544751 43.010487 170.739777
1650    1 2 0.0 13.126251 38.843339 167.349818
1651    1 2 0.0 14.960518 39.094722 165.210474
1652    1 2 0.0 15.181907 42.532318 167.692325
1653    1 2 0.0 13.578042 40.116942 171.187841
1654    1 2 0.0 17.120547 45.346997 170.004726
1655    1 2 0.0 13.272706 38.312915 169.228444
1656    1 2 0.0 12.876749 35.940832 166.367972
1657    1 1 0.0 22.073390 51.582435 178.663567
1658    1 1 0.0 15.733255 43.929607 175.910207
1659    1 1 0.0 21.711212 51.853953 175.066403
1660    1 1 0.0 17.783050 47.700994 175.878682
1661    1 2 0.0 21.141316 49.990118 177.838357
1662    1 2 0.0 16.905036 46.657671 174.448398
1663    1 2 0.0 18.750374 46.507819 172.309054
1664    1 2 0.0 19.707443 49.816912 174.790905
1665    1 2 0.0 17.620701 47.803972 178.286421
1666    1 2 0.0 22.207153 52.147619 177.103306
1667    1 2 0.0 16.933730 46.108148 176.327024
1668    1 2 0.0 16.035838 43.877152 173.466552
1669    1 1 0.0 28.387483 57.169060 185.762147
1670    1 1 0.0 20.546983 51.062534 183.008787
1671    1 1 0.0 28.092334 57.512255 182.164983
1672    1 1 0.0 23.361428 54.303508 182.977262
1673    1 2 0.0 27.134131 55.815049 184.936937
1674    1 2 0.0 22.279188 53.473938 181.546978
1675    1 2 0.0 24.048861 52.929893 179.407634
1676    1 2 0.0 25.696626 55.954947 181.889485
1677    1 2 0.0 23.225089 54.439056 185.385001
1678    1 2 0.0 28.639912 57.692133 184.201886
1679    1 2 0.0 22.188772 52.931146 183.425604
1680    1 2 0.0 20.831149 50.946098 180.565132
1681    1 1 0.0 35.757235 61.263555 192.860727
1682    1 1 0.0 26.784897 56.990354 190.107367
1683    1 1 0.0 35.542990 61.662295 189.263563
1684    1 1 0.0 30.231705 59.548582 190.075842
1685    1 2 0.0 34.241517 60.211491 192.035517
1686    1 2 0.0 28.996107 58.971756 188.645558
1687    1 2 0.0 30.606936 58.059090 186.506214
1688    1 2 0.0 32.867947 60.657918 188.988065
1689    1 2 0.0 30.127784 59.710328 192.483581
1690    1 2 0.0 36.116466 61.719930 191.300466
1691    1 2 0.0 28.790832 58.461207 190.524184
1692    1 2 0.0 27.037290 56.815410 187.663712
1693    1 1 0.0 43.836249 63.673466 199.959307
1694    1 1 0.0 34.153797 61.434444 197.205947
1695    1 1 0.0 43.712977 64.109011 196.362143
1696    1 1 0.0 38.070959 63.189680 197.174422
1697    1 2 0.0 42.129408 62.972801 199.134097
1698    1 2 0.0 36.740080 62.892711 195.744138
1699    1 2 0.0 38.116351 61.654323 193.604794
1700    1 2 0.0 40.884334 63.704773 196.086645
1701    1 2 0.0 38.004340 63.370023 199.582161
1702    1 2 0.0 44.285397 64.041693 198.399046
1703    1 2 0.0 36.429593 62.438402 197.622764
1704    1 2 0.0 34.362554 61.209214 194.762292
1705    1 1 0.0 52.244788 64.285522 1.736011
1706    1 1 0.0 42.307324 64.185918 204.304527
1707    1 1 0.0 52.218283 64.737399 203.460723
1708    1 1 0.0 46.510723 65.055662 204.273002
1709    1 2 0.0 50.427050 63.969188 0.910801
1710    1 2 0.0 45.147117 65.052509 202.842718
1711    1 2 0.0 46.224142 63.546605 200.703374
1712    1 2 0.0 49.368995 64.952300 203.185225
1713    1 2 0.0 46.484538 65.246125 1.358865
1714    1 2 0.0 52.762742 64.548292 0.175750
1715    1 2 0.0 44.746013 64.675794 204.721344
1716    1 2 0.0 42.462633 63.920989 201.860872
1717    1 1 0.0 60.587626 63.070953 8.834591
1718    1 1 0.0 50.862241 65.115450 6.081231
1719    1 1 0.0 60.659135 63.517923 5.237427
1720    1 1 0.0 55.154304 65.058822 6.049706
1721    1 2 0.0 58.744431 63.153820 8.009381
1722    1 2 0.0 53.822065 65.349632 4.619422
1723    1 2 0.0 54.549220 63.646994 2.480078
1724    1 2 0.0 57.923125 64.341864 4.961929
1725    1 2 0.0 55.169784 65.250452 8.457445
1726    1 2 0.0 61.150042 63.215917 7.274330
1727    1 2 0.0 53.349197 65.068218 6.498048
1728    1 2 0.0 50.956801 64.823275 3.637576
1729    1 1 0.0 68.472629 60.086849 15.933171
1730    1 1 0.0 59.416441 64.179349 13.179811
1731    1 1 0.0 68.638789 60.507902 12.336007
1732    1 1 0.0 63.595430 63.199010 13.148286
1733    1 2 0.0 66.690610 60.565021 15.107961
1734    1 2 0.0 62.357177 63.770115 11.718002
1735    1 2 0.0 62.700284 61.950772 9.578658
1736    1 2 0.0 66.144658 61.902154 12.060509
1737    1 2 0.0 63.651846 63.382800 15.556025
1738    1 2 0.0 69.053069 60.107192 14.372910
1739    1 2 0.0 61.834770 63.597229 13.596628
1740    1 2 0.0 59.445808 63.873660 10.736156
1741    1 1 0.0 76.481493 51.219623 20.400868
1742    1 1 0.0 70.945569 57.235683 16.053011
1743    1 1 0.0 76.915651 51.875526 16.884286
1744    1 1 0.0 74.607890 55.407749 16.026506
1745    1 2 0.0 74.743742 52.078530 19.802901
1746    1 2 0.0 74.071789 56.414678 14.246370
1747    1 2 0.0 71.355527 54.526714 14.624364
1748    1 2 0.0 75.600150 53.709079 15.991798
1749    1 2 0.0 75.520099 55.328872 17.543836
1750    1 2 0.0 77.161122 51.249128 18.830368
1751    1 2 0.0 72.959643 56.108589 16.535181
1752    1 2 0.0 70.316131 57.101508 14.289683
1753    1 1 0.0 81.438723 45.088536 27.499448
1754    1 1 0.0 77.329506 52.156333 23.151591
1755    1 1 0.0 82.004041 45.635452 23.982866
1756    1 1 0.0 80.511794 49.582041 23.125086
1757    1 2 0.0 79.926927 46.301784 26.901481
1758    1 2 0.0 80.205309 50.680848 21.344950
1759    1 2 0.0 77.145982 49.422673 21.722944
1760    1 2 0.0 81.114630 47.709436 23.090378
1761    1 2 0.0 81.385564 49.308415 24.642416
1762    1 2 0.0 82.108740 44.970871 25.928948
1763    1 2 0.0 79.053330 50.621646 23.633761
1764    1 2 0.0 76.685942 52.160971 21.388263
1765    1 1 0.0 84.958057 38.033137 34.598028
1766    1 1 0.0 82.468690 45.820465 30.250171
1767    1 1 0.0 85.627963 38.445361 31.081446
1768    1 1 0.0 85.021369 42.620813 30.223666
1769    1 2 0.0 83.743274 39.543700 34.000061
1770    1 2 0.0 84.958906 43.759852 28.443530
1771    1 2 0.0 81.700311 43.190604 28.821524
1772    1 2 0.0 85.206447 40.662292 30.188958
1773    1 2 0.0 85.815632 42.165300 31.740996
1774    1 2 0.0 85.586968 37.773833 33.027528
1775    1 2 0.0 83.821241 43.950320 30.732341
1776    1 2 0.0 81.841251 45.963697 28.486843
1777    1 1 0.0 86.874076 30.385050 41.696608
1778    1 1 0.0 86.121567 38.525882 37.348751
1779    1 1 0.0 87.617081 30.643205 38.180026
1780    1 1 0.0 87.924653 34.851264 37.322246
1781    1 2 0.0 86.013404 32.121927 41.098641
1782    1 2 0.0 88.109147 35.976996 35.542110
1783    1 2 0.0 84.804448 36.123430 35.920104
1784    1 2 0.0 87.683274 32.898882 37.287538
1785    1 2 0.0 88.602075 34.235273 38.839576
1786    1 2 0.0 87.432320 29.996295 40.126108
1787    1 2 0.0 87.039270 36.408182 37.830921
1788    1 2 0.0 85.539743 38.800976 35.585423
1789    1 1 0.0 87.096721 22.503756 48.795188
1790    1 1 0.0 88.116439 30.615451 44.447331
1791    1 1 0.0 87.877903 22.595709 45.278606
1792    1 1 0.0 89.085183 26.638584 44.420826
1793    1 2 0.0 86.630614 24.385309 48.197221
1794    1 2 0.0 89.507963 27.698096 42.640690
1795    1 2 0.0 86.312489 28.553330 43.018684
1796    1 2 0.0 88.428692 24.784108 44.386118
1797    1 2 0.0 89.613924 25.891069 45.938156
1798    1 2 0.0 87.558059 22.003822 47.224688
1799    1 2 0.0 88.556161 28.349732 44.929501
1800    1 2 0.0 87.607579 31.009476 42.684003
1801    1 1 0.0 85.615527 14.759698 55.893768
1802    1 1 0.0 88.359544 22.460983 51.545911
1803    1 1 0.0 86.398169 14.681126 52.377186
1804    1 1 0.0 88.448411 18.368791 51.519406
1805    1 2 0.0 85.565894 16.697489 55.295801
1806    1 2 0.0 89.089606 19.312284 49.739270
1807    1 2 0.0 86.153553 20.836119 50.117264
1808    1 2 0.0 87.407665 16.699388 51.484698
1809    1 2 0.0 88.803619 17.524887 53.036736
1810    1 2 0.0 85.958276 14.172084 54.323268
1811    1 2 0.0 88.300615 20.153742 52.028081
1812    1 2 0.0 87.947564 22.955420 49.782583
1813    1 1 0.0 82.500115 7.516869 62.992348
1814    1 1 0.0 86.839454 14.445762 58.644491
1815    1 1 0.0 83.247430 7.271466 59.475766
1816    1 1 0.0 86.044268 10.430589 58.617986
1817    1 2 0.0 82.869288 9.419816 62.394381
1818    1 2 0.0 86.873739 11.213716 56.837850
1819    1 2 0.0 84.335110 13.334528 57.215844
1820    1 2 0.0 84.668185 9.024725 58.583278
1821    1 2 0.0 86.209247 9.529962 60.135316
1822    1 2 0.0 82.708164 6.869194 61.421848
1823    1 2 0.0 86.284644 12.205445 59.126661
1824    1 2 0.0 86.543719 15.017371 56.881163
1825    1 1 0.0 77.896918 1.115701 70.090928
1826    1 1 0.0 83.627617 6.946525 65.743071
1827    1 1 0.0 78.573779 0.715002 66.574346
1828    1 1 0.0 81.985754 3.197096 65.716566
1829    1 2 0.0 78.667546 2.894361 69.492961
1830    1 2 0.0 82.964514 3.783048 63.936430
1831    1 2 0.0 80.942632 6.401153 64.314424
1832    1 2 0.0 80.339014 2.120850 65.681858
1833    1 2 0.0 81.952749 2.282079 67.233896
1834    1 2 0.0 77.960488 0.438409 68.520428
1835    1 2 0.0 82.603005 4.878434 66.225241
1836    1 2 0.0 83.462028 7.568439 63.979743
1837    1 1 0.0 72.022299 -4.142931 77.189508
1838    1 1 0.0 78.874999 0.315759 72.841651
1839    1 1 0.0 72.596893 -4.680093 73.672926
1840    1 1 0.0 76.463631 -2.991693 72.815146
1841    1 2 0.0 73.158159 -2.572161 76.591541
1842    1 2 0.0 77.545675 -2.630458 71.035010
1843    1 2 0.0 76.135575 0.361881 71.413004
1844    1 2 0.0 74.623635 -3.687734 72.780438
1845    1 2 0.0 76.234194 -3.878093 74.332476
1846    1 2 0.0 71.938403 -4.818008 75.619008
1847    1 2 0.0 77.428744 -1.482902 73.323821
1848    1 2 0.0 78.847339 0.958744 71.078323
1849    1 1 0.0 65.152381 -8.011858 84.288088
1850    1 1 0.0 72.804987 -5.134874 79.940231
1851    1 1 0.0 65.597700 -8.660235 80.771506
1852    1 1 0.0 69.737455 -7.844889 79.913726
1853    1 2 0.0 66.600085 -6.722808 83.690121
1854    1 2 0.0 70.871924 -7.725350 78.133590
1855    1 2 0.0 70.139883 -4.499424 78.511584
1856    1 2 0.0 67.790688 -8.128009 79.879018
1857    1 2 0.0 69.322370 -8.661008 81.431056
1858    1 2 0.0 64.924962 -8.652988 82.717588
1859    1 2 0.0 71.005067 -6.579561 80.422401
1860    1 2 0.0 72.916555 -4.501038 78.176903
1861    1 1 0.0 57.610070 -10.309230 91.386668
1862    1 1 0.0 65.702888 -9.149177 87.038811
1863    1 1 0.0 57.905183 -11.038346 87.870086
1864    1 1 0.0 62.123375 -11.134377 87.012306
1865    1 2 0.0 59.301572 -9.362489 90.788701
1866    1 2 0.0 63.256946 -11.262152 85.232170
1867    1 2 0.0 63.237372 -7.954268 85.610164
1868    1 2 0.0 60.161340 -10.991269 86.977598
1869    1 2 0.0 61.542151 -11.841855 88.529636
1870    1 2 0.0 57.249817 -10.886278 89.816168
1871    1 2 0.0 63.633904 -10.171986 87.520981
1872    1 2 0.0 65.948441 -8.554282 85.275483
1873    1 1 0.0 49.749876 -10.927063 98.485248
1874    1 1 0.0 57.902521 -11.538467 94.137391
1875    1 1 0.0 49.880912 -11.702647 94.968666
1876    1 1 0.0 53.979273 -12.705542 94.110886
1877    1 2 0.0 51.605671 -10.367130 97.887281
1878    1 2 0.0 55.058665 -13.074626 92.330750
1879    1 2 0.0 55.752479 -9.840263 92.708744
1880    1 2 0.0 52.094192 -12.142932 94.076178
1881    1 2 0.0 53.259231 -13.271126 95.628216
1882    1 2 0.0 49.273722 -11.412906 96.914748
1883    1 2 0.0 55.661721 -12.091324 94.619561
1884    1 2 0.0 58.270516 -11.010476 92.374063
1885    1 1 0.0 41.941250 -9.836317 105.583828
1886    1 1 0.0 49.770524 -12.190441 101.235971
1887    1 1 0.0 41.902049 -10.621916 102.067246
1888    1 1 0.0 45.687946 -12.484535 101.209466
1889    1 2 0.0 43.874110 -9.689512 104.985861
1890    1 2 0.0 46.662424 -13.077580 99.429330
1891    1 2 0.0 48.037015 -10.068762 99.807324
1892    1 2 0.0 43.968423 -11.528868 101.174758
1893    1 2 0.0 44.862929 -12.881641 102.726796
1894    1 2 0.0 41.371575 -10.208120 104.013328
1895    1 2 0.0 47.463232 -12.247360 101.718141
1896    1 2 0.0 50.243666 -11.754170 99.472643
1897    1 1 0.0 34.551220 -7.088261 112.682408
1898    1 1 0.0 41.689124 -11.074455 108.334551
1899    1 1 0.0 34.343625 -7.846948 109.165826
1900    1 1 0.0 37.639109 -10.481744 108.308046
1901    1 2 0.0 36.470294 -7.361483 112.084441
1902    1 2 0.0 38.462870 -11.270875 106.527910
1903    1 2 0.0 40.453627 -8.629026 106.905904
1904    1 2 0.0 36.165966 -9.177938 108.273338
1905    1 2 0.0 36.747895 -10.691707 109.825376
1906    1 2 0.0 33.914801 -7.328548 111.111908
1907    1 2 0.0 39.423790 -10.632759 108.816721
1908    1 2 0.0 42.245174 -10.750410 106.571223
1909    1 1 0.0 27.927136 -2.812061 119.780988
1910    1 1 0.0 34.038171 -8.242962 115.433131
1911    1 1 0.0 27.560905 -3.508176 116.264406
1912    1 1 0.0 30.211079 -6.791306 115.406626
1913    1 2 0.0 29.742224 -3.492468 119.183021
1914    1 2 0.0 30.845405 -7.739431 113.626490
1915    1 2 0.0 33.358758 -5.588725 114.004484
1916    1 2 0.0 29.053559 -5.200644 115.371918
1917    1 2 0.0 29.295558 -6.804257 116.923956
1918    1 2 0.0 27.253887 -2.909537 118.210488
1919    1 2 0.0 31.921271 -7.323413 115.915301
1920    1 2 0.0 34.650991 -8.046374 113.669803
1921    1 1 0.0 22.380351 2.791289 126.879568
1922    1 1 0.0 27.177280 -3.829050 122.531711
1923    1 1 0.0 21.872697 2.190465 123.362986
1924    1 1 0.0 23.752996 -1.586682 122.505206
1925    1 2 0.0 24.006138 1.735678 126.281601
1926    1 2 0.0 24.168071 -2.649237 120.725070
1927    1 2 0.0 27.085885 -1.090762 121.103064
1928    1 2 0.0 22.965504 0.216071 122.470498
1929    1 2 0.0 22.856200 -1.402011 124.022536
1930    1 2 0.0 21.701915 2.841206 125.309068
1931    1 2 0.0 25.308314 -2.474870 123.013881
1932    1 2 0.0 27.818067 -3.769161 120.768383
1933    1 1 0.0 18.171578 9.458417 133.978148
1934    1 1 0.0 21.428931 1.959813 129.630291
1935    1 1 0.0 17.546363 8.981125 130.461566
1936    1 1 0.0 18.568407 4.887497 129.603786
1937    1 2 0.0 19.531647 8.077219 133.380181
1938    1 2 0.0 18.744722 3.760455 127.823650
1939    1 2 0.0 21.929851 4.653445 128.201644
1940    1 2 0.0 18.187959 6.817605 129.569078
1941    1 2 0.0 17.732488 5.261108 131.121116
1942    1 2 0.0 17.519844 9.653380 132.407648
1943    1 2 0.0 19.895748 3.684974 130.112461
1944    1 2 0.0 22.067567 1.880190 127.866963
1945    1 1 0.0 15.498641 16.875949 141.076728
1946    1 1 0.0 17.063315 8.851535 136.728871
1947    1 1 0.0 14.785252 16.544622 137.560146
1948    1 1 0.0 14.901003 12.326926 136.702366
1949    1 2 0.0 16.529066 15.234083 140.478761
1950    1 2 0.0 14.830269 11.188371 134.922230
1951    1 2 0.0 18.133004 11.373903 135.300224
1952    1 2 0.0 14.945479 14.293669 136.667658
1953    1 2 0.0 14.165251 12.871917 138.219696
1954    1 2 0.0 14.904244 17.206793 139.506228
1955    1 2 0.0 15.937977 10.866590 137.211041
1956    1 2 0.0 17.669782 8.636143 134.965543
1957    1 1 0.0 14.487177 24.695240 148.175308
1958    1 1 0.0 14.285627 16.522186 143.827451
1959    1 1 0.0 13.719145 24.525452 144.658726
1960    1 1 0.0 12.923161 20.381930 143.800946
1961    1 2 0.0 15.139524 22.869879 147.577341
1962    1 2 0.0 12.608704 19.285378 142.020810
1963    1 2 0.0 15.873807 18.754732 142.398804
1964    1 2 0.0 13.390473 22.292867 143.766238
1965    1 2 0.0 12.322159 21.072685 145.318276
1966    1 2 0.0 13.978053 25.146416 146.604808
1967    1 2 0.0 13.621028 18.732422 144.309621
1968    1 2 0.0 14.831419 16.181148 142.064123
1969    1 1 0.0 15.184727 32.548761 155.273888
1970    1 1 0.0 13.226426 24.611224 150.926031
1971    1 1 0.0 14.398151 32.548492 151.757306
1972    1 1 0.0 12.727847 28.673902 150.899526
1973    1 2 0.0 15.428334 30.625702 154.675921
1974    1 2 0.0 12.184447 27.670894 149.119390
1975    1 2 0.0 15.258448 26.449012 149.497384
1976    1 2 0.0 13.596028 30.439213 150.864818
1977    1 2 0.0 12.289843 29.477954 152.416856
1978    1 2 0.0 14.784807 33.099062 153.703388
1979    1 2 0.0 13.053804 26.912753 151.408201
1980    1 2 0.0 13.685889 24.160570 149.162703
1981    1 1 0.0 17.558503 40.067374 162.372468
1982    1 1 0.0 13.935497 32.738442 158.024611
1983    1 1 0.0 16.790355 40.236638 158.855886
1984    1 1 0.0 14.324239 36.813097 157.998106
1985    1 2 0.0 17.381920 38.137007 161.774501
1986    1 2 0.0 13.577438 35.950776 156.217970
1987    1 2 0.0 16.315851 34.095089 156.595964
1988    1 2 0.0 15.552483 38.349806 157.963398
1989    1 2 0.0 14.069821 37.692652 159.515436
1990    1 2 0.0 17.286585 40.690935 160.801968
1991    1 2 0.0 14.262966 35.023086 158.506781
1992    1 2 0.0 14.287035 32.199353 156.261283
1993    1 1 0.0 21.496932 46.897685 169.471048
1994    1 1 0.0 16.379513 40.521836 165.123191
1995    1 1 0.0 20.783317 47.228525 165.954466
1996    1 1 0.0 17.637304 44.416948 165.096686
1997    1 2 0.0 20.908460 45.050742 168.873081
1998    1 2 0.0 16.722202 43.735846 163.316550
1999    1 2 0.0 18.996315 41.333578 163.694544
2000    1 2 0.0 19.167880 45.652827 165.061978
2001    1 2 0.0 17.578430 45.330666 166.614016
2002    1 2 0.0 21.365796 47.565195 167.900548
2003    1 2 0.0 17.191681 42.682210 165.605361
2004    1 2 0.0 16.606603 39.919652 163.359863
2005    1 1 0.0 26.814897 52.718648 176.569628
2006    1 1 0.0 20.443597 47.595566 172.221771
2007    1 1 0.0 26.189356 53.195514 173.053046
2008    1 1 0.0 22.511317 51.128054 172.195266
2009    1 2 0.0 25.842194 51.041941 175.971661
2010    1 2 0.0 21.470929 50.660185 170.415130
2011    1 2 0.0 23.173850 47.824248 170.793124
2012    1 2 0.0 24.272284 52.005012 172.160558
2013    1 2 0.0 22.650755 52.032987 173.712596
2014    1 2 0.0 26.830707 53.398734 174.999128
2015    1 2 0.0 21.702290 49.530127 172.703941
2016    1 2 0.0 20.535565 46.958591 170.458443
2017    1 1 0.0 33.262438 57.256664 183.668208
2018    1 1 0.0 25.936727 53.627147 179.320351
2019    1 1 0.0 32.754374 57.857141 180.151626
2020    1 1 0.0 28.717188 56.630974 179.293846
2021    1 2 0.0 31.951225 55.829002 183.070241
2022    1 2 0.0 27.600413 56.398329 177.513710
2023    1 2 0.0 28.652101 53.262020 177.891704
2024    1 2 0.0 30.625774 57.107792 179.259138
2025    1 2 0.0 29.048383 57.484587 180.811176
2026    1 2 0.0 33.424451 57.917359 182.097708
2027    1 2 0.0 27.582783 55.244965 179.802521
2028    1 2 0.0 25.889250 52.985321 177.557023
2029    1 1 0.0 40.536502 60.298431 190.766788
2030    1 1 0.0 32.600709 58.333078 186.418931
2031    1 1 0.0 40.169796 60.994296 187.250206
2032    1 1 0.0 35.963221 60.667055 186.392426
2033    1 2 0.0 38.948410 59.186918 190.168821
2034    1 2 0.0 34.822551 60.680569 184.612290
2035    1 2 0.0 35.173575 57.391304 184.990284
2036    1 2 0.0 37.929719 60.721322 186.357718
2037    1 2 0.0 36.470607 61.429227 187.909756
2038    1 2 0.0 40.837104 60.908681 189.196288
2039    1 2 0.0 34.556759 59.558111 186.901101
2040    1 2 0.0 32.416019 57.716567 184.655603
2041    1 1 0.0 48.295190 61.700978 197.865368
2042    1 1 0.0 40.122319 61.492166 193.517511
2043    1 1 0.0 48.087077 62.459523 194.348786
2044    1 1 0.0 43.908834 63.046590 193.491006
2045    1 2 0.0 46.504862 60.957860 197.267401
2046    1 2 0.0 42.797884 63.305628 191.710870
2047    1 2 0.0 42.431744 60.018012 192.088864
2048    1 2 0.0 45.840812 62.675755 193.456298
2049    1 2 0.0 44.568562 63.681496 195.008336
2050    1 2 0.0 48.720250 62.232100 196.294868
2051    1 2 0.0 42.296422 62.266834 193.999681
2052    1 2 0.0 39.809096 60.929949 191.754183
2053    1 1 0.0 56.173819 61.398382 204.963948
2054    1 1 0.0 48.148018 62.955925 200.616091
2055    1 1 0.0 56.134082 62.183954 201.447366
2056    1 1 0.0 52.180560 63.657734 200.589586
2057    1 2 0.0 54.265407 61.058586 204.365981
2058    1 2 0.0 51.151548 64.150120 198.809450
2059    1 2 0.0 50.085453 61.018680 199.187444
2060    1 2 0.0 53.987211 62.879227 200.554878
2061    1 2 0.0 52.961621 64.135532 202.106916
2062    1 2 0.0 56.703360 61.825411 203.393448
2063    1 2 0.0 50.437986 63.243816 201.098261
2064    1 2 0.0 47.720986 62.474428 198.852763
2065    1 1 0.0 63.802073 59.404866 6.740652
2066    1 1 0.0 56.300577 62.655556 2.392795
2067    1 1 0.0 63.932579 60.180540 3.224070
2068    1 1 0.0 60.389606 62.471762 2.366290
2069    1 2 0.0 61.865277 59.484364 6.142685
2070    1 2 0.0 59.490898 63.174353 0.586154
2071    1 2 0.0 57.774957 60.346275 0.964148
2072    1 2 0.0 61.986010 61.322175 2.331582
2073    1 2 0.0 61.255287 62.769994 3.883620
2074    1 2 0.0 64.411203 59.707731 5.170152
2075    1 2 0.0 58.598775 62.443138 2.874965
2076    1 2 0.0 55.779807 62.277410 0.629467
2077    1 1 0.0 70.821402 55.814130 13.839232
2078    1 1 0.0 64.196803 60.605175 9.491375
2079    1 1 0.0 71.116018 56.543448 10.322650
2080    1 1 0.0 68.150122 59.544418 9.464870
2081    1 2 0.0 68.947258 56.309185 13.241265
2082    1 2 0.0 67.423960 60.424190 7.684734
2083    1 2 0.0 65.138828 58.032401 8.062728
2084    1 2 0.0 69.461245 58.077784 9.430162
2085    1 2 0.0 69.059734 59.649066 10.982200
2086    1 2 0.0 71.481492 55.978595 12.268732
2087    1 2 0.0 66.395209 59.902433 9.973545
2088    1 2 0.0 63.606772 60.348154 7.728047
2089    1 1 0.0 75.060553 47.148514 20.918303
2090    1 1 0.0 71.602256 52.905486 15.321813
2091    1 1 0.0 75.415005 47.959553 17.698204
2092    1 1 0.0 74.850828 51.240906 15.468894
2093    1 2 0.0 73.344509 47.912079 20.431321
2094    1 2 0.0 74.667999 52.326620 13.517804
2095    1 2 0.0 70.118755 50.261718 15.645166
2096    1 2 0.0 74.868528 49.651043 16.248031
2097    1 2 0.0 76.235072 51.093755 16.422151
2098    1 2 0.0 75.689310 47.283804 19.472192
2099    1 2 0.0 73.332882 51.833358 15.914950
2100    1 2 0.0 70.579415 52.816932 14.054965
2101    1 1 0.0 79.173757 41.419350 28.016883
2102    1 1 0.0 77.037499 47.786370 22.420393
2103    1 1 0.0 79.694677 42.134935 24.796784
2104    1 1 0.0 79.850969 45.460766 22.567474
2105    1 2 0.0 77.662609 42.534818 27.529901
2106    1 2 0.0 79.906433 46.560368 20.616384
2107    1 2 0.0 75.019068 45.524464 22.743746
2108    1 2 0.0 79.525599 43.904452 23.346611
2109    1 2 0.0 81.170966 45.018735 23.520731
2110    1 2 0.0 79.816895 41.415948 26.570772
2111    1 2 0.0 78.496384 46.366448 23.013530
2112    1 2 0.0 76.019611 47.920344 21.153545
2113    1 1 0.0 81.955524 34.938336 35.115463
2114    1 1 0.0 81.241716 41.616136 29.518973
2115    1 1 0.0 82.618427 35.524833 31.895364
2116    1 1 0.0 83.487842 38.738818 29.666054
2117    1 2 0.0 80.720300 36.353278 34.628481
2118    1 2 0.0 83.778993 39.800624 27.714964
2119    1 2 0.0 78.783225 39.842408 29.842326
2120    1 2 0.0 82.834696 37.289204 30.445191
2121    1 2 0.0 84.681549 38.022685 30.619311
2122    1 2 0.0 82.582815 34.796403 33.669352
2123    1 2 0.0 82.360288 39.915160 30.112110
2124    1 2 0.0 80.276623 41.966341 28.252125
2125    1 1 0.0 83.275103 28.010099 42.214043
2126    1 1 0.0 84.017295 34.684803 36.617553
2127    1 1 0.0 84.048832 28.439941 38.993944
2128    1 1 0.0 85.590504 31.391012 36.764634
2129    1 2 0.0 82.373863 29.658007 41.727061
2130    1 2 0.0 86.103657 32.365114 34.813544
2131    1 2 0.0 81.234302 33.482623 36.940906
2132    1 2 0.0 84.640281 30.116235 37.543771
2133    1 2 0.0 86.601813 30.434437 37.717891
2134    1 2 0.0 83.857062 27.736305 40.767932
2135    1 2 0.0 84.742978 32.782724 37.210690
2136    1 2 0.0 83.150361 35.234778 35.350705
2137    1 1 0.0 83.070471 20.960283 49.312623
2138    1 1 0.0 85.233777 27.318163 43.716133
2139    1 1 0.0 83.918656 21.213267 46.092524
2140    1 1 0.0 86.060123 23.762717 43.863214
2141    1 2 0.0 82.545574 22.763702 48.825641
2142    1 2 0.0 86.771158 24.603330 41.912124
2143    1 2 0.0 82.257090 26.744037 44.039486
2144    1 2 0.0 84.857488 22.722694 44.642351
2145    1 2 0.0 86.841501 22.610662 44.816471
2146    1 2 0.0 83.579743 20.567498 47.866512
2147    1 2 0.0 85.532463 25.304383 44.309270
2148    1 2 0.0 84.505750 28.042058 42.449285
2149    1 1 0.0 81.351244 14.120252 56.411203
2150    1 1 0.0 84.833984 19.862469 50.814713
2151    1 1 0.0 82.234021 14.184486 53.191104
2152    1 1 0.0 84.874627 16.212483 50.961794
2153    1 2 0.0 81.227363 15.994416 55.924221
2154    1 2 0.0 85.750124 16.880095 49.010704
2155    1 2 0.0 81.803516 19.943382 51.138066
2156    1 2 0.0 83.476106 15.456099 51.740931
2157    1 2 0.0 85.389346 14.919097 51.915051
2158    1 2 0.0 81.763894 13.626937 54.965092
2159    1 2 0.0 84.691633 17.831641 51.407850
2160    1 2 0.0 84.279084 20.726258 49.547865
2161    1 1 0.0 78.198233 7.811505 63.509783
2162    1 1 0.0 82.836708 12.668158 57.913293
2163    1 1 0.0 79.074107 7.683970 60.289684
2164    1 1 0.0 82.089737 9.095193 58.060374
2165    1 2 0.0 78.481190 9.668322 63.022801
2166    1 2 0.0 83.088545 9.558425 56.109284
2167    1 2 0.0 79.894899 13.400308 58.236646
2168    1 2 0.0 80.561064 8.658000 58.839511
2169    1 2 0.0 82.313604 7.721269 59.013631
2170    1 2 0.0 78.494864 7.240848 62.063672
2171    1 2 0.0 82.260011 10.715738 58.506430
2172    1 2 0.0 82.481015 13.631242 56.646445
2173    1 1 0.0 73.759637 2.330571 70.608363
2174    1 1 0.0 79.335826 6.073385 65.011873
2175    1 1 0.0 74.587440 2.017261 67.388264
2176    1 1 0.0 77.836351 2.745379 65.158954
2177    1 2 0.0 74.436133 4.082767 70.121381
2178    1 2 0.0 78.911523 2.982458 63.207864
2179    1 2 0.0 76.620949 7.422358 65.335226
2180    1 2 0.0 76.249378 2.647926 65.938091
2181    1 2 0.0 77.758843 1.355496 66.112211
2182    1 2 0.0 73.926307 1.709394 69.162252
2183    1 2 0.0 78.351889 4.291141 65.605010
2184    1 2 0.0 79.196060 7.090494 63.745025
2185    1 1 0.0 68.244083 -2.064930 77.706943
2186    1 1 0.0 74.495889 0.388121 72.110453
2187    1 1 0.0 68.984906 -2.549288 74.486844
2188    1 1 0.0 72.314389 -2.538499 72.257534
2189    1 2 0.0 69.282320 -0.499714 77.219961
2190    1 2 0.0 73.415389 -2.538718 70.306444
2191    1 2 0.0 72.135551 2.290512 72.433806
2192    1 2 0.0 70.743709 -2.291632 73.036671
2193    1 2 0.0 71.939150 -3.879013 73.210791
2194    1 2 0.0 68.272957 -2.707430 76.260832
2195    1 2 0.0 73.150960 -1.140175 72.703590
2196    1 2 0.0 74.578619 1.411450 70.843605
2197    1 1 0.0 61.910818 -5.168398 84.805523
2198    1 1 0.0 68.544388 -4.120410 79.209033
2199    1 1 0.0 62.529839 -5.801038 81.585424
2200    1 1 0.0 65.783400 -6.508085 79.356114
2201    1 2 0.0 63.261995 -3.863732 84.318541
2202    1 2 0.0 66.858478 -6.745590 77.405024
2203    1 2 0.0 66.649532 -1.754019 79.532386
2204    1 2 0.0 64.302839 -5.928501 80.135251
2205    1 2 0.0 65.128067 -7.736223 80.309371
2206    1 2 0.0 61.800539 -5.802021 83.359412
2207    1 2 0.0 66.901682 -5.322925 79.802170
2208    1 2 0.0 68.845725 -3.138961 77.942185
2209    1 1 0.0 55.057521 -6.833961 91.904103
2210    1 1 0.0 61.761060 -7.240294 86.307613
2211    1 1 0.0 55.525646 -7.585146 88.684004
2212    1 1 0.0 58.550359 -8.976797 86.454694
2213    1 2 0.0 56.658131 -5.851167 91.417121
2214    1 2 0.0 59.548982 -9.440425 84.503604
2215    1 2 0.0 60.420749 -4.521130 86.630966
2216    1 2 0.0 57.229507 -8.091738 87.233831
2217    1 2 0.0 57.645734 -10.034832 87.407951
2218    1 2 0.0 54.813274 -7.428925 90.457992
2219    1 2 0.0 59.897790 -8.060506 86.900750
2220    1 2 0.0 62.266841 -6.346855 85.040765
2221    1 1 0.0 48.006319 -6.983333 99.002683
2222    1 1 0.0 54.464740 -8.824888 93.406193
2223    1 1 0.0 48.301544 -7.817756 95.782584
2224    1 1 0.0 50.955237 -9.828599 93.553274
2225    1 2 0.0 49.781127 -6.368605 98.515701
2226    1 2 0.0 51.830469 -10.496558 91.602184
2227    1 2 0.0 53.741973 -5.880759 93.729546
2228    1 2 0.0 49.856179 -8.679665 94.332411
2229    1 2 0.0 49.843841 -10.666800 94.506531
2230    1 2 0.0 47.639583 -7.511673 97.556572
2231    1 2 0.0 52.468484 -9.224245 93.999330
2232    1 2 0.0 55.151192 -8.061454 92.139345
2233    1 1 0.0 41.088636 -5.609493 106.101263
2234    1 1 0.0 46.998377 -8.799712 100.504773
2235    1 1 0.0 41.197085 -6.487934 102.881164
2236    1 1 0.0 43.355029 -9.023452 100.651854
2237    1 2 0.0 42.954223 -5.391725 105.614281
2238    1 2 0.0 44.065731 -9.864347 98.700764
2239    1 2 0.0 46.927125 -5.769001 100.828126
2240    1 2 0.0 42.529422 -7.664647 101.430991
2241    1 2 0.0 42.089100 -9.602422 101.605111
2242    1 2 0.0 40.616649 -6.046376 104.655152
2243    1 2 0.0 44.962965 -8.759443 101.097910
2244    1 2 0.0 47.833234 -8.202167 99.237925
2245    1 1 0.0 34.629624 -2.777014 113.199843
2246    1 1 0.0 39.712910 -7.165948 107.603353
2247    1 1 0.0 34.546199 -3.658184 109.979744
2248    1 1 0.0 36.106964 -6.599203 107.750434
2249    1 2 0.0 36.498301 -2.966443 112.712861
2250    1 2 0.0 36.619730 -7.573508 105.799344
2251    1 2 0.0 40.296523 -4.191107 107.926706
2252    1 2 0.0 35.593615 -5.094393 108.529571
2253    1 2 0.0 34.746004 -6.891728 108.703691
2254    1 2 0.0 34.074571 -3.101906 111.753732
2255    1 2 0.0 37.734012 -6.687946 108.196490
2256    1 2 0.0 40.656932 -6.762378 106.336505
2257    1 1 0.0 28.932874 1.380967 120.298423
2258    1 1 0.0 32.950776 -4.000389 114.701933
2259    1 1 0.0 28.661497 0.538486 117.078324
2260    1 1 0.0 29.551722 -2.669796 114.849014
2261    1 2 0.0 30.716808 0.793246 119.811441
2262    1 2 0.0 29.842452 -3.731718 112.897924
2263    1 2 0.0 34.161822 -1.221244 115.025286
2264    1 2 0.0 29.374760 -1.089713 115.628151
2265    1 2 0.0 28.159701 -2.662128 115.802271
2266    1 2 0.0 28.320844 1.183339 118.852312
2267    1 2 0.0 31.121406 -3.107121 115.295070
2268    1 2 0.0 33.959591 -3.809763 113.435085
2269    1 1 0.0 24.266150 6.669015 127.397003
2270    1 1 0.0 27.029815 0.548175 121.800513
2271    1 1 0.0 23.819576 5.904822 124.176904
2272    1 1 0.0 23.997418 2.580074 121.947594
2273    1 2 0.0 25.881491 5.710626 126.910021
2274    1 2 0.0 24.052446 1.480450 119.996504
2275    1 2 0.0 28.811372 3.000998 122.123866
2276    1 2 0.0 24.165160 4.161163 122.726731
2277    1 2 0.0 22.639764 2.887576 122.900851
2278    1 2 0.0 23.625909 6.607938 125.950892
2279    1 2 0.0 25.435958 1.814722 122.393650
2280    1 2 0.0 28.056006 0.516898 120.533665
2281    1 1 0.0 20.848800 12.838577 134.495583
2282    1 1 0.0 22.228329 6.265949 128.899093
2283    1 1 0.0 20.248019 12.188590 131.275484
2284    1 1 0.0 19.705120 8.903649 129.046174
2285    1 2 0.0 22.219623 11.554567 134.008601
2286    1 2 0.0 19.521860 7.818009 127.095084
2287    1 2 0.0 24.496658 8.277159 129.222446
2288    1 2 0.0 20.209682 10.411428 129.825311
2289    1 2 0.0 18.445646 9.496531 129.999431
2290    1 2 0.0 20.210442 12.916922 133.049472
2291    1 2 0.0 20.944901 7.846245 129.492230
2292    1 2 0.0 23.223662 6.014239 127.632245
2293    1 1 0.0 18.841450 19.599665 141.594163
2294    1 1 0.0 18.772000 12.884182 135.997673
2295    1 1 0.0 18.114701 19.094437 138.374064
2296    1 1 0.0 16.876577 16.003704 136.144754
2297    1 2 0.0 19.903322 18.050386 141.107181
2298    1 2 0.0 16.463642 14.983074 134.193664
2299    1 2 0.0 21.420484 14.359247 136.321026
2300    1 2 0.0 17.694244 17.367303 136.923891
2301    1 2 0.0 15.774483 16.854099 137.098011
2302    1 2 0.0 18.234980 19.813751 140.148052
2303    1 2 0.0 17.859326 14.703948 136.590810
2304    1 2 0.0 19.689692 12.423869 134.730825
2305    1 1 0.0 18.338450 26.634490 148.692743
2306    1 1 0.0 16.823287 20.091798 143.096253
2307    1 1 0.0 17.519892 26.297767 145.472644
2308    1 1 0.0 15.644740 23.546516 143.243334
2309    1 2 0.0 19.041460 24.892763 148.205761
2310    1 2 0.0 15.021540 22.638870 141.292244
2311    1 2 0.0 19.727439 20.961386 143.419606
2312    1 2 0.0 16.737078 24.701841 144.022471
2313    1 2 0.0 14.751827 24.614453 144.196591
2314    1 2 0.0 17.792374 26.974253 147.246632
2315    1 2 0.0 16.324264 22.065501 143.689390
2316    1 2 0.0 17.620203 19.444519 141.829405
2317    1 1 0.0 19.363444 33.612395 155.791323
2318    1 1 0.0 16.473783 27.550020 150.194833
2319    1 1 0.0 18.491551 33.460004 152.571224
2320    1 1 0.0 16.067508 31.177551 150.341914
2321    1 2 0.0 19.674548 31.760085 155.304341
2322    1 2 0.0 15.263334 30.425550 148.390824
2323    1 2 0.0 19.497101 27.773257 150.518186
2324    1 2 0.0 17.383175 32.070300 151.121051
2325    1 2 0.0 15.425745 32.412834 151.295171
2326    1 2 0.0 18.903428 34.061865 154.345212
2327    1 2 0.0 16.411868 29.584888 150.787970
2328    1 2 0.0 17.112467 26.746198 148.927985
2329    1 1 0.0 21.868253 40.205399 162.889903
2330    1 1 0.0 17.739917 34.908288 157.293413
2331    1 1 0.0 20.984007 40.244503 159.669804
2332    1 1 0.0 18.125009 38.538130 157.440494
2333    1 2 0.0 21.772829 38.329571 162.402921
2334    1 2 0.0 17.177661 37.977120 155.489404
2335    1 2 0.0 20.740296 34.474682 157.616766
2336    1 2 0.0 19.602165 39.126340 158.219631
2337    1 2 0.0 17.764562 39.882697 158.393751
2338    1 2 0.0 21.515919 40.743451 161.443792
2339    1 2 0.0 18.118020 36.908679 157.886550
2340    1 2 0.0 18.190349 33.985706 156.026565
2341    1 1 0.0 25.735144 46.103612 169.988483
2342    1 1 0.0 20.562177 41.820745 164.391993
2343    1 1 0.0 24.880107 46.332373 166.768384
2344    1 1 0.0 21.720536 45.282284 164.539074
2345    1 2 0.0 25.237678 44.292435 169.501501
2346    1 2 0.0 20.674541 44.938635 162.587984
2347    1 2 0.0 23.398590 40.750677 164.715346
2348    1 2 0.0 23.289750 45.538309 165.318211
2349    1 2 0.0 21.658346 46.672937 165.492331
2350    1 2 0.0 25.507054 46.704955 168.542372
2351    1 2 0.0 21.362526 43.692634 164.985130
2352    1 2 0.0 20.803184 40.822766 163.125145
2353    1 1 0.0 30.782364 51.029802 177.087063
2354    1 1 0.0 24.807909 47.962486 171.490573
2355    1 1 0.0 29.996725 51.437468 173.866964
2356    1 1 0.0 26.685089 51.093020 171.637654
2357    1 2 0.0 29.906237 49.368406 176.600081
2358    1 2 0.0 25.589611 50.982884 169.686564
2359    1 2 0.0 27.347037 46.306251 171.813926
2360    1 2 0.0 28.272603 51.004825 172.416791
2361    1 2 0.0 26.924079 52.464394 172.590911
2362    1 2 0.0 30.689237 51.666172 175.640952
2363    1 2 0.0 25.992885 49.617888 172.083710
2364    1 2 0.0 24.828164 46.936018 170.223725
2365    1 1 0.0 36.772677 54.752424 184.185643
2366    1 1 0.0 30.277551 53.044831 178.589153
2367    1 1 0.0 36.093363 55.319833 180.965544
2368    1 1 0.0 32.785319 55.697216 178.736234
2369    1 2 0.0 35.559070 53.318899 183.698661
2370    1 2 0.0 31.691850 55.825770 176.785144
2371    1 2 0.0 32.400048 50.880278 178.912506
2372    1 2 0.0 34.316516 55.268947 179.515371
2373    1 2 0.0 33.314256 56.984853 179.689491
2374    1 2 0.0 36.818892 55.393909 182.739532
2375    1 2 0.0 31.791457 54.405939 179.182290
2376    1 2 0.0 30.076102 52.038121 177.322305
2377    1 1 0.0 43.424523 57.096504 191.284223
2378    1 1 0.0 36.714015 56.828896 185.687733
2379    1 1 0.0 42.883464 57.796986 188.064124
2380    1 1 0.0 39.734499 58.878463 185.834814
2381    1 2 0.0 41.930479 55.958230 190.797241
2382    1 2 0.0 38.694434 59.239664 183.883724
2383    1 2 0.0 38.320118 54.257764 186.011086
2384    1 2 0.0 41.137408 58.130249 186.613951
2385    1 2 0.0 40.528521 60.021840 186.788071
2386    1 2 0.0 43.607907 57.712953 189.838112
2387    1 2 0.0 38.485693 57.831733 186.280870
2388    1 2 0.0 36.300330 55.889262 184.420885
2389    1 1 0.0 50.425246 57.951864 198.382803
2390    1 1 0.0 43.814769 59.136819 192.786313
2391    1 1 0.0 50.047874 58.752495 195.162704
2392    1 1 0.0 47.205997 60.487232 192.933394
2393    1 2 0.0 48.720989 57.162343 197.895821
2394    1 2 0.0 46.268223 61.064104 190.982304
2395    1 2 0.0 44.828986 56.279959 193.109666
2396    1 2 0.0 48.414679 59.454243 193.712531
2397    1 2 0.0 48.227784 61.432608 193.886651
2398    1 2 0.0 50.737180 58.514302 196.936692
2399    1 2 0.0 45.760945 59.734250 193.379450
2400    1 2 0.0 43.208293 58.308427 191.519465
2401    1 1 0.0 57.445793 57.278300 0.159507
2402    1 1 0.0 51.246057 59.860122 199.884893
2403    1 1 0.0 57.249845 58.141448 202.261284
2404    1 1 0.0 54.848633 60.447908 200.031974
2405    1 2 0.0 55.611428 56.874642 204.994401
2406    1 2 0.0 54.057228 61.213335 198.080884
2407    1 2 0.0 51.620718 56.851815 200.208246
2408    1 2 0.0 55.806275 59.178695 200.811111
2409    1 2 0.0 56.050157 61.150847 200.985231
2410    1 2 0.0 57.871615 57.760290 204.035272
2411    1 2 0.0 53.275256 60.024065 200.478030
2412    1 2 0.0 50.475296 59.181908 198.618045
2413    1 1 0.0 64.156179 55.107471 7.258087
2414    1 1 0.0 58.658589 58.964807 1.661597
2415    1 1 0.0 64.150864 55.992565 4.037988
2416    1 1 0.0 62.303181 58.762339 1.808678
2417    1 2 0.0 62.277926 55.108649 6.771105
2418    1 2 0.0 61.695342 59.680343 205.179464
2419    1 2 0.0 58.376083 55.946451 1.984950
2420    1 2 0.0 62.964772 57.316560 2.587815
2421    1 2 0.0 63.627968 59.189800 2.761935
2422    1 2 0.0 64.675873 55.486359 5.811976
2423    1 2 0.0 60.675432 58.687556 2.254734
2424    1 2 0.0 57.759771 58.468650 0.394749
2425    1 1 0.0 70.240995 51.541412 14.356667
2426    1 1 0.0 65.703954 56.492956 8.760177
2427    1 1 0.0 70.426564 52.406851 11.136568
2428    1 1 0.0 69.219256 55.509750 8.907258
2429    1 2 0.0 68.407138 51.947370 13.869685
2430    1 2 0.0 68.823555 56.537184 6.956168
2431    1 2 0.0 64.777560 53.606422 9.083530
2432    1 2 0.0 69.553699 53.955360 9.686395
2433    1 2 0.0 70.605037 55.641642 9.860515
2434    1 2 0.0 70.830136 51.799389 12.910556
2435    1 2 0.0 67.613644 55.787544 9.353314
2436    1 2 0.0 64.719325 56.202176 7.493329
2437    1 1 0.0 70.451398 43.726334 24.336319
2438    1 1 0.0 69.411940 48.683172 17.130548
2439    1 1 0.0 70.261503 44.582547 21.803911
2440    1 1 0.0 71.950545 47.364638 17.725422
2441    1 2 0.0 68.790257 44.264245 23.910198
2442    1 2 0.0 72.024206 48.414691 15.681976
2443    1 2 0.0 65.358791 46.072285 19.807626
2444    1 2 0.0 70.760853 45.961143 19.531867
2445    1 2 0.0 73.849787 47.264141 18.087896
2446    1 2 0.0 70.790998 43.957464 23.221413
2447    1 2 0.0 70.738093 47.783392 17.948336
2448    1 2 0.0 67.876686 48.532356 16.464455
2449    1 1 0.0 73.935363 39.070978 31.434899
2450    1 1 0.0 73.988649 44.135352 24.229128
2451    1 1 0.0 73.934465 39.947996 28.902491
2452    1 1 0.0 76.183419 42.300676 24.824002
2453    1 2 0.0 72.429193 39.954263 31.008778
2454    1 2 0.0 76.481660 43.310174 22.780556
2455    1 2 0.0 69.468047 42.459374 26.906206
2456    1 2 0.0 74.719199 41.186571 26.630447
2457    1 2 0.0 78.016366 41.793208 25.186476
2458    1 2 0.0 74.316796 39.223485 30.319993
2459    1 2 0.0 75.089712 42.970900 25.046916
2460    1 2 0.0 72.456972 44.318963 23.563035
2461    1 1 0.0 76.334110 33.774153 38.533479
2462    1 1 0.0 77.477637 38.708022 31.327708
2463    1 1 0.0 76.522251 34.630753 36.001071
2464    1 1 0.0 79.225410 36.443438 31.922582
2465    1 2 0.0 75.053706 34.961294 38.107358
2466    1 2 0.0 79.734213 37.364934 29.879136
2467    1 2 0.0 72.702062 38.045729 34.004786
2468    1 2 0.0 77.555485 35.671091 33.729027
2469    1 2 0.0 80.905909 35.552853 32.285056
2470    1 2 0.0 76.739447 33.840867 37.418573
2471    1 2 0.0 78.301855 37.333631 32.145496
2472    1 2 0.0 76.021529 39.217431 30.661615
2473    1 1 0.0 77.534891 28.084823 45.632059
2474    1 1 0.0 79.714909 32.656282 38.426288
2475    1 1 0.0 77.903228 28.880743 43.099651
2476    1 1 0.0 80.933536 30.068233 39.021162
2477    1 2 0.0 76.540435 29.520023 45.205938
2478    1 2 0.0 81.628985 30.858413 36.977716
2479    1 2 0.0 74.908828 33.038804 41.103366
2480    1 2 0.0 79.136397 29.673945 40.827607
2481    1 2 0.0 82.382599 28.836390 39.383636
2482    1 2 0.0 77.945081 28.062610 44.517153
2483    1 2 0.0 80.223544 31.136553 39.244076
2484    1 2 0.0 78.402812 33.467546 37.760195
2485    1 1 0.0 77.481266 22.270404 52.730639
2486    1 1 0.0 80.595309 26.264581 45.524868
2487    1 1 0.0 78.012487 22.968233 50.198231
2488    1 1 0.0 81.227510 23.474712 46.119742
2489    1 2 0.0 76.819502 23.886203 52.304518
2490    1 2 0.0 82.076918 24.096436 44.076296
2491    1 2 0.0 75.984620 27.673938 48.201946
2492    1 2 0.0 79.387629 23.477017 47.926187
2493    1 2 0.0 82.377027 21.959512 46.482216
2494    1 2 0.0 77.877028 22.160307 51.615733
2495    1 2 0.0 80.764452 24.670945 46.342656
2496    1 2 0.0 79.488894 27.339567 44.858775
2497    1 1 0.0 76.175756 16.604189 59.829219
2498    1 1 0.0 80.077455 19.833347 52.623448
2499    1 1 0.0 76.844891 17.171127 57.296811
2500    1 1 0.0 80.093515 16.972790 53.218322
2501    1 2 0.0 75.877787 18.324641 59.403098
2502    1 2 0.0 81.056958 17.396835 51.174876
2503    1 2 0.0 75.878873 22.203296 55.300526
2504    1 2 0.0 78.297370 17.371578 55.024767
2505    1 2 0.0 80.889455 15.245451 53.580796
2506    1 2 0.0 76.538489 16.411384 58.714313
2507    1 2 0.0 79.899157 18.240710 53.441236
2508    1 2 0.0 79.228728 21.121528 51.957355
2509    1 1 0.0 73.679724 11.352507 66.927799
2510    1 1 0.0 78.185688 13.664867 59.722028
2511    1 1 0.0 74.455322 11.761907 64.395391
2512    1 1 0.0 77.584852 10.868074 60.316902
2513    1 2 0.0 73.759556 13.096745 66.501678
2514    1 2 0.0 78.617044 11.074509 58.273456
2515    1 2 0.0 74.596558 16.884012 62.399106
2516    1 2 0.0 75.916868 11.644603 62.123347
2517    1 2 0.0 77.989804 9.009787 60.679376
2518    1 2 0.0 73.992378 11.086055 65.812893
2519    1 2 0.0 77.668328 12.148085 60.539816
2520    1 2 0.0 77.634540 15.105694 59.055935
2521    1 1 0.0 70.110489 6.762201 74.026379
2522    1 1 0.0 75.008925 8.049074 66.820608
2523    1 1 0.0 70.956095 6.994819 71.493971
2524    1 1 0.0 73.819435 5.447505 67.415482
2525    1 2 0.0 70.564370 8.448241 73.600258
2526    1 2 0.0 74.871861 5.426626 65.372036
2527    1 2 0.0 72.197948 11.966108 69.497686
2528    1 2 0.0 72.358011 6.565274 69.221927
2529    1 2 0.0 73.814365 3.545613 67.777956
2530    1 2 0.0 70.358369 6.434626 72.911473
2531    1 2 0.0 74.176822 6.679443 67.638396
2532    1 2 0.0 74.781263 9.574826 66.154515
2533    1 1 0.0 65.635817 3.049028 81.124959
2534    1 1 0.0 70.696484 3.249929 73.919188
2535    1 1 0.0 66.511685 3.093931 78.592551
2536    1 1 0.0 68.974249 0.965864 74.514062
2537    1 2 0.0 66.442412 4.597622 80.698838
2538    1 2 0.0 69.997441 0.718653 72.470616
2539    1 2 0.0 68.795783 7.680739 76.596266
2540    1 2 0.0 67.788076 2.372335 76.320507
2541    1 2 0.0 68.559395 -0.890239 74.876536
2542    1 2 0.0 65.807271 2.675728 80.010053
2543    1 2 0.0 69.588749 2.091824 74.736976
2544    1 2 0.0 70.803008 4.788890 73.253095
2545    1 1 0.0 60.466028 0.387518 88.223539
2546    1 1 0.0 65.451062 -0.506996 81.017768
2547    1 1 0.0 61.330990 0.242596 85.691131
2548    1 1 0.0 63.277031 -2.366200 81.612642
2549    1 2 0.0 61.587426 1.725877 87.797418
2550    1 2 0.0 64.222897 -2.828123 79.569196
2551    1 2 0.0 64.549974 4.229330 83.694846
2552    1 2 0.0 62.421863 -0.737134 83.419087
2553    1 2 0.0 62.471893 -4.089271 81.975116
2554    1 2 0.0 60.552998 -0.013961 87.108633
2555    1 2 0.0 64.119761 -1.399141 81.835556
2556    1 2 0.0 65.886765 0.972838 80.351675
2557    1 1 0.0 54.844119 -1.097230 95.322119
2558    1 1 0.0 59.519208 -3.045116 88.116348
2559    1 1 0.0 55.657518 -1.425166 92.789711
2560    1 1 0.0 56.995567 -4.392070 88.711222
2561    1 2 0.0 56.227610 -0.032012 94.895998
2562    1 2 0.0 57.819649 -5.046994 86.667776
2563    1 2 0.0 59.660088 1.774106 90.793426
2564    1 2 0.0 56.511599 -2.616980 90.517667
2565    1 2 0.0 55.837988 -5.901119 89.073696
2566    1 2 0.0 54.842516 -1.508018 94.207213
2567    1 2 0.0 58.026916 -3.629367 88.934136
2568    1 2 0.0 60.263611 -1.693963 87.450255
2569    1 1 0.0 49.034333 -1.335430 102.420699
2570    1 1 0.0 53.179736 -4.245130 95.214928
2571    1 1 0.0 49.757939 -1.830966 99.888291
2572    1 1 0.0 50.425104 -5.016525 95.809802
2573    1 2 0.0 50.614891 -0.593421 101.994578
2574    1 2 0.0 51.088666 -5.833666 93.766356
2575    1 2 0.0 54.355962 0.430470 97.892006
2576    1 2 0.0 50.335084 -3.178845 97.616247
2577    1 2 0.0 48.969493 -6.240623 96.172276
2578    1 2 0.0 48.944234 -1.736218 101.305793
2579    1 2 0.0 51.596595 -4.494026 96.032716
2580    1 2 0.0 54.197850 -3.086168 94.548835
2581    1 1 0.0 43.309748 -0.315885 109.519279
2582    1 1 0.0 46.730619 -4.050635 102.313508
2583    1 1 0.0 43.909548 -0.955729 106.986871
2584    1 1 0.0 43.874470 -4.210213 102.908382
2585    1 2 0.0 45.013081 0.068038 109.093158
2586    1 2 0.0 44.346325 -5.151164 100.864936
2587    1 2 0.0 48.886904 0.261577 104.990586
2588    1 2 0.0 44.182629 -2.396320 104.714827
2589    1 2 0.0 42.189246 -5.091825 103.270856
2590    1 2 0.0 43.135387 -0.687835 108.404373
2591    1 2 0.0 45.131040 -3.952477 103.131296
2592    1 2 0.0 47.974589 -3.138339 101.647415
2593    1 1 0.0 37.939435 1.913484 116.617859
2594    1 1 0.0 40.474983 -2.470774 109.412088
2595    1 1 0.0 38.387238 1.159406 114.085451
2596    1 1 0.0 37.651565 -2.011033 110.006962
2597    1 2 0.0 39.685482 1.921275 116.191738
2598    1 2 0.0 37.909533 -3.031566 107.963516
2599    1 2 0.0 43.509977 1.275365 112.089166
2600    1 2 0.0 38.343419 -0.306185 111.813407
2601    1 2 0.0 35.815938 -2.508720 110.369436
2602    1 2 0.0 37.689007 1.587854 115.502953
2603    1 2 0.0 38.934152 -2.030175 110.229876
2604    1 2 0.0 41.886340 -1.848022 108.745995
2605    1 1 0.0 33.175814 5.247889 123.716439
2606    1 1 0.0 34.706861 0.420197 116.510668
2607    1 1 0.0 33.450571 4.415021 121.184031
2608    1 1 0.0 32.048883 1.477647 117.105542
2609    1 2 0.0 34.882505 4.879183 123.290318
2610    1 2 0.0 32.080839 0.425499 115.062096
2611    1 2 0.0 38.477911 3.424183 119.187746
2612    1 2 0.0 33.091912 2.993318 118.911987
2613    1 2 0.0 30.149132 1.387277 117.468016
2614    1 2 0.0 32.861090 4.983885 122.601533
2615    1 2 0.0 33.297202 1.182526 117.328456
2616    1 2 0.0 36.219267 0.724132 115.844575
2617    1 1 0.0 29.242788 9.530605 130.815019
2618    1 1 0.0 29.697371 4.486393 123.609248
2619    1 1 0.0 29.331585 8.658094 128.282611
2620    1 1 0.0 27.329765 6.091849 124.204122
2621    1 2 0.0 30.829905 8.802731 130.388898
2622    1 2 0.0 27.134207 5.057541 122.160676
2623    1 2 0.0 34.027226 6.607030 126.286326
2624    1 2 0.0 28.674945 7.347102 126.010567
2625    1 2 0.0 25.455184 6.413045 124.566596
2626    1 2 0.0 28.878562 9.340636 129.700113
2627    1 2 0.0 28.485141 5.534622 124.427036
2628    1 2 0.0 31.239739 4.457226 122.943155
2629    1 1 0.0 26.325221 14.560331 137.913599
2630    1 1 0.0 25.681973 9.536692 130.707828
2631    1 1 0.0 26.223884 13.689188 135.381191
2632    1 1 0.0 23.716022 11.614693 131.302702
2633    1 2 0.0 27.718164 13.507502 137.487478
2634    1 2 0.0 23.302143 10.646840 129.259256
2635    1 2 0.0 30.367118 10.674305 133.384906
2636    1 2 0.0 25.300126 12.550527 133.109147
2637    1 2 0.0 21.954722 12.332357 131.665176
2638    1 2 0.0 25.928611 14.453326 136.798693
2639    1 2 0.0 24.724150 10.821550 131.525616
2640    1 2 0.0 27.181806 9.175793 130.041735
2641    1 1 0.0 24.560246 20.100657 145.012179
2642    1 1 0.0 22.849402 15.333716 137.806408
2643    1 1 0.0 24.273538 19.271827 142.479771
2644    1 1 0.0 21.377512 17.786590 138.401282
2645    1 2 0.0 25.693543 18.772359 144.586058
2646    1 2 0.0 20.764764 16.930684 136.357836
2647    1 2 0.0 27.669622 15.434833 140.483486
2648    1 2 0.0 23.126082 18.359019 140.207727
2649    1 2 0.0 19.812279 18.866990 138.763756
2650    1 2 0.0 24.149895 20.081645 143.897273
2651    1 2 0.0 22.191006 16.794812 138.624196
2652    1 2 0.0 24.236205 14.658049 137.140315
2653    1 1 0.0 24.030823 25.891171 152.110759
2654    1 1 0.0 21.332796 21.604988 144.904988
2655    1 1 0.0 23.572220 25.143612 149.578351
2656    1 1 0.0 20.424151 24.317443 145.499862
2657    1 2 0.0 24.851206 24.349838 151.684638
2658    1 2 0.0 19.641335 23.613713 143.456416
2659    1 2 0.0 26.061528 20.664856 147.582066
2660    1 2 0.0 22.254998 24.499561 147.306307
2661    1 2 0.0 19.128555 25.709797 145.862336
2662    1 2 0.0 23.626018 25.961047 150.995853
2663    1 2 0.0 21.004775 23.173646 145.722776
2664    1 2 0.0 22.541385 20.646311 144.238895
2665    1 1 0.0 24.761835 31.659704 159.209339
2666    1 1 0.0 21.203441 28.055740 152.003568
2667    1 1 0.0 24.152893 31.028553 156.676931
2668    1 1 0.0 20.900749 30.900283 152.598442
2669    1 2 0.0 25.230744 29.977782 158.783218
2670    1 2 0.0 19.984660 30.381808 150.554996
2671    1 2 0.0 25.618420 26.118549 154.680646
2672    1 2 0.0 22.727820 30.683530 154.404887
2673    1 2 0.0 19.935686 32.539147 152.960916
2674    1 2 0.0 24.381603 31.815182 158.094433
2675    1 2 0.0 21.221212 29.658229 152.821356
2676    1 2 0.0 22.177009 26.859114 151.337475
2677    1 1 0.0 26.718923 37.135117 166.307919
2678    1 1 0.0 22.467417 34.382770 159.102148
2679    1 1 0.0 25.988264 36.650041 163.775511
2680    1 1 0.0 22.784905 37.225700 159.697022
2681    1 2 0.0 26.814317 35.391662 165.881798
2682    1 2 0.0 21.778601 36.916848 157.653576
2683    1 2 0.0 26.361127 31.539573 161.779226
2684    1 2 0.0 24.522321 36.620264 161.503467
2685    1 2 0.0 22.195736 39.034042 160.059496
2686    1 2 0.0 26.381136 37.368890 165.193013
2687    1 2 0.0 22.830144 35.943768 159.919936
2688    1 2 0.0 23.160203 33.004439 158.436055
2689    1 1 0.0 29.810098 42.060052 173.406499
2690    1 1 0.0 25.065312 40.288689 166.200728
2691    1 1 0.0 28.992066 41.743850 170.874091
2692    1 1 0.0 25.988058 42.996380 166.795602
2693    1 2 0.0 29.527495 40.337010 172.980378
2694    1 2 0.0 24.938839 42.911669 164.752156
2695    1 2 0.0 28.254738 36.673124 168.877806
2696    1 2 0.0 27.554156 42.030718 168.602047
2697    1 2 0.0 25.802476 44.889203 167.158076
2698    1 2 0.0 29.530634 42.361132 172.291593
2699    1 2 0.0 25.755947 41.734825 167.018516
2700    1 2 0.0 25.444754 38.793439 165.534635
2701    1 1 0.0 33.890067 46.203022 180.505079
2702    1 1 0.0 28.875019 45.495903 173.299308
2703    1 1 0.0 33.023110 46.070556 177.972671
2704    1 1 0.0 30.359651 47.941085 173.894182
2705    1 2 0.0 33.242749 44.581382 180.078958
2706    1 2 0.0 29.316833 48.084497 171.850736
2707    1 2 0.0 31.210249 41.277912 175.976386
2708    1 2 0.0 31.680821 46.660586 175.700627
2709    1 2 0.0 30.586379 49.829422 174.256656
2710    1 2 0.0 33.682060 46.557257 179.390173
2711    1 2 0.0 29.861100 46.759204 174.117096
2712    1 2 0.0 28.923282 43.954015 172.633215
2713    1 1 0.0 38.767059 49.369296 187.603659
2714    1 1 0.0 33.717471 49.759657 180.397888
2715    1 1 0.0 37.891928 49.426793 185.071251
2716    1 1 0.0 35.694207 51.827401 180.992762
2717    1 2 0.0 37.785452 47.925279 187.177538
2718    1 2 0.0 34.706805 52.192194 178.949316
2719    1 2 0.0 35.088743 45.137497 183.074966
2720    1 2 0.0 36.708350 50.292252 182.799207
2721    1 2 0.0 36.322588 53.622494 181.355236
2722    1 2 0.0 38.640287 49.760037 186.488753
2723    1 2 0.0 34.952649 50.780745 181.215676
2724    1 2 0.0 33.432286 48.243604 179.731795
2725    1 1 0.0 44.211843 51.410051 194.702239
2726    1 1 0.0 39.365059 52.879544 187.496468
2727    1 1 0.0 43.369670 51.654808 192.169831
2728    1 1 0.0 41.740987 54.472660 188.091342
2729    1 2 0.0 42.942084 50.211530 194.276118
2730    1 2 0.0 40.855412 55.041688 186.047896
2731    1 2 0.0 39.707918 48.070470 190.173546
2732    1 2 0.0 42.400434 52.755017 189.897787
2733    1 2 0.0 42.741485 56.090134 188.453816
2734    1 2 0.0 44.172264 51.818931 193.587333
2735    1 2 0.0 40.791278 53.610425 188.314256
2736    1 2 0.0 38.759831 51.460584 186.830375
2737    1 1 0.0 49.968497 52.229365 201.800819
2738    1 1 0.0 45.552331 54.708919 194.595048
2739    1 1 0.0 49.198868 52.649878 199.268411
2740    1 1 0.0 48.215775 55.752526 195.189922
2741    1 2 0.0 48.470270 51.332674 201.374698
2742    1 2 0.0 47.473651 56.499044 193.146476
2743    1 2 0.0 44.850662 49.938971 197.272126
2744    1 2 0.0 48.489532 53.933123 196.996367
2745    1 2 0.0 49.541364 57.116356 195.552396
2746    1 2 0.0 50.017972 52.637165 200.685913
2747    1 2 0.0 47.102553 55.115240 195.412836
2748    1 2 0.0 44.655506 53.453748 193.928955
2749    1 1 0.0 55.766444 51.788728 3.577523
2750    1 1 0.0 51.988466 55.161798 201.693628
2751    1 1 0.0 55.105533 52.365232 1.045115
2752    1 1 0.0 54.814238 55.606843 202.288502
2753    1 2 0.0 54.110169 51.236013 3.151402
2754    1 2 0.0 54.250448 56.495762 200.245056
2755    1 2 0.0 50.275251 50.655176 204.370706
2756    1 2 0.0 54.689437 53.771198 204.094947
2757    1 2 0.0 56.402612 56.652925 202.650976
2758    1 2 0.0 55.902647 52.176281 2.462617
2759    1 2 0.0 53.589828 55.224460 202.511416
2760    1 2 0.0 50.842199 54.129412 201.027535
2761    1 1 0.0 61.333163 50.108851 10.676103
2762    1 1 0.0 58.370950 54.216893 3.470332
2763    1 1 0.0 60.812034 50.814249 8.143695
2764    1 1 0.0 61.226229 54.042458 4.065206
2765    1 2 0.0 59.596690 49.926093 10.249982
2766    1 2 0.0 60.867273 55.031996 2.021760
2767    1 2 0.0 55.726714 50.185422 6.147410
2768    1 2 0.0 60.708736 52.276851 5.871651
2769    1 2 0.0 63.002730 54.721624 4.427680
2770    1 2 0.0 61.549692 50.457942 9.561197
2771    1 2 0.0 59.948182 53.932951 4.288120
2772    1 2 0.0 57.029118 53.455818 2.804239
2773    1 1 0.0 66.407003 47.268693 17.774683
2774    1 1 0.0 64.399787 51.918618 10.568912
2775    1 1 0.0 66.050151 48.069829 15.242275
2776    1 1 0.0 67.150368 51.132902 11.163786
2777    1 2 0.0 64.671950 47.464482 17.348562
2778    1 2 0.0 67.013116 52.176548 9.120340
2779    1 2 0.0 60.948816 48.551788 13.245990
2780    1 2 0.0 66.264506 49.520321 12.970231
2781    1 2 0.0 69.031495 51.413228 11.526260
2782    1 2 0.0 66.693680 47.562913 16.659777
2783    1 2 0.0 65.878756 51.301418 11.386700
2784    1 2 0.0 62.925460 51.464626 9.902819
2785    1 1 0.0 71.845831 56.911912 25.462689
2786    1 1 0.0 64.163632 62.313189 22.266200
2787    1 1 0.0 71.979905 57.151546 21.923956
2788    1 1 0.0 67.998795 60.726307 22.329984
2789    1 2 0.0 70.112686 57.586023 24.673228
2790    1 2 0.0 66.935715 61.469458 20.843428
2791    1 2 0.0 66.286430 59.244029 19.232617
2792    1 2 0.0 69.944433 58.933086 21.509021
2793    1 2 0.0 68.386910 61.044637 24.510249
2794    1 2 0.0 72.379515 56.789244 23.926379
2795    1 2 0.0 66.378623 61.384304 22.741297
2796    1 2 0.0 63.881464 61.850248 20.026208
2797    1 1 0.0 78.138829 51.646143 32.561269
2798    1 1 0.0 71.801277 58.576180 29.364780
2799    1 1 0.0 78.321400 51.851249 29.022536
2800    1 1 0.0 75.204297 56.200022 29.428564
2801    1 2 0.0 76.591704 52.677945 31.771808
2802    1 2 0.0 74.326368 57.154827 27.942008
2803    1 2 0.0 73.212709 55.121635 26.331197
2804    1 2 0.0 76.717728 54.029614 28.607601
2805    1 2 0.0 75.651899 56.427223 31.608829
2806    1 2 0.0 78.633534 51.411337 31.024959
2807    1 2 0.0 73.764016 57.191741 29.839877
2808    1 2 0.0 71.425965 58.184932 27.124788
2809    1 1 0.0 83.149036 45.147837 39.659849
2810    1 1 0.0 78.454012 53.280901 36.463360
2811    1 1 0.0 83.371520 45.308774 36.121116
2812    1 1 0.0 81.264938 50.227155 36.527144
2813    1 2 0.0 81.860647 46.488833 38.870388
2814    1 2 0.0 80.613425 51.348735 35.040588
2815    1 2 0.0 79.087737 49.603346 33.429777
2816    1 2 0.0 82.275027 47.781573 35.706181
2817    1 2 0.0 81.750987 50.352547 38.707409
2818    1 2 0.0 83.581508 44.811928 38.123539
2819    1 2 0.0 80.072244 51.505981 36.938457
2820    1 2 0.0 78.003198 52.979736 34.223368
2821    1 1 0.0 86.640955 37.722431 46.758429
2822    1 1 0.0 83.809140 46.676246 43.561940
2823    1 1 0.0 86.892897 37.831636 43.219696
2824    1 1 0.0 85.895851 43.088446 43.625724
2825    1 2 0.0 85.671863 39.309590 45.968968
2826    1 2 0.0 85.501376 44.324084 42.139168
2827    1 2 0.0 83.635372 42.948536 40.528357
2828    1 2 0.0 86.355120 40.482641 42.804761
2829    1 2 0.0 86.397502 43.106136 45.805989
2830    1 2 0.0 86.990868 37.301209 45.222119
2831    1 2 0.0 85.006804 44.594272 44.037037
2832    1 2 0.0 83.304012 46.479320 41.321948
2833    1 1 0.0 88.450459 29.718941 53.857009
2834    1 1 0.0 87.614955 39.072652 50.660520
2835    1 1 0.0 88.720016 29.771280 50.318276
2836    1 1 0.0 88.879369 35.119435 50.724304
2837    1 2 0.0 87.846212 31.477662 53.067548
2838    1 2 0.0 88.760474 36.411053 49.237748
2839    1 2 0.0 86.641860 35.470000 47.626937
2840    1 2 0.0 88.766232 32.475887 49.903341
2841    1 2 0.0 89.373043 35.028591 52.904569
2842    1 2 0.0 88.701364 29.232204 52.320699
2843    1 2 0.0 88.335758 36.781483 51.135617
2844    1 2 0.0 87.079257 38.989222 48.420528
2845    1 1 0.0 88.492495 21.513554 60.955589
2846    1 1 0.0 89.692573 30.827510 57.759100
2847    1 1 0.0 88.766997 21.506566 57.416856
2848    1 1 0.0 90.075259 26.694688 57.822884
2849    1 2 0.0 88.281494 23.361172 60.166128
2850    1 2 0.0 90.237533 27.981576 56.336328
2851    1 2 0.0 87.965890 27.519250 54.725517
2852    1 2 0.0 89.395033 24.137651 57.001921
2853    1 2 0.0 90.537753 26.499581 60.003149
2854    1 2 0.0 88.632600 20.984179 59.419279
2855    1 2 0.0 89.902634 28.434836 58.234197
2856    1 2 0.0 89.151483 30.861496 55.519108
2857    1 1 0.0 86.765086 13.491945 68.054169
2858    1 1 0.0 89.944340 22.328365 64.857680
2859    1 1 0.0 87.031632 13.425960 64.515436
2860    1 1 0.0 89.427311 18.210191 64.921464
2861    1 2 0.0 86.957250 15.341617 67.264708
2862    1 2 0.0 89.863126 19.431862 63.434908
2863    1 2 0.0 87.545228 19.469995 61.824097
2864    1 2 0.0 88.211969 15.859853 64.100501
2865    1 2 0.0 89.836885 17.919991 67.101729
2866    1 2 0.0 86.787806 12.944815 66.517859
2867    1 2 0.0 89.633787 19.946649 65.332777
2868    1 2 0.0 89.423291 22.478170 62.617688
2869    1 1 0.0 83.349427 6.031152 75.152749
2870    1 1 0.0 88.358423 13.974699 71.956260
2871    1 1 0.0 83.595487 5.909271 71.614016
2872    1 1 0.0 86.965980 10.064741 72.020044
2873    1 2 0.0 83.935723 7.795939 74.363288
2874    1 2 0.0 87.654852 11.163771 70.533488
2875    1 2 0.0 85.399646 11.700571 68.922677
2876    1 2 0.0 85.272647 8.031574 71.199081
2877    1 2 0.0 87.303384 9.693088 74.200309
2878    1 2 0.0 83.253693 5.491984 73.616439
2879    1 2 0.0 87.541851 11.715889 72.431357
2880    1 2 0.0 87.881906 14.233282 69.716268
2881    1 1 0.0 78.406063 -0.518146 82.251329
2882    1 1 0.0 85.009363 6.159159 79.054840
2883    1 1 0.0 78.620071 -0.690194 78.712596
2884    1 1 0.0 82.806956 2.641195 79.118624
2885    1 2 0.0 79.358933 1.078805 81.461868
2886    1 2 0.0 83.716506 3.565929 77.632068
2887    1 2 0.0 81.629993 4.576163 76.021257
2888    1 2 0.0 80.715222 1.020764 78.297661
2889    1 2 0.0 83.056330 2.205558 81.298889
2890    1 2 0.0 78.196375 -1.024009 80.715019
2891    1 2 0.0 83.725155 4.129425 79.529937
2892    1 2 0.0 84.599775 6.514366 76.814848
2893    1 1 0.0 72.167345 -5.848113 89.349909
2894    1 1 0.0 80.054576 -0.750902 86.153420
2895    1 1 0.0 72.339244 -6.062242 85.811176
2896    1 1 0.0 77.145724 -3.711519 86.217204
2897    1 2 0.0 73.442003 -4.494059 88.560448
2898    1 2 0.0 78.233200 -3.004547 84.730648
2899    1 2 0.0 76.413453 -1.568362 83.119837
2900    1 2 0.0 74.753908 -4.843049 85.396241
2901    1 2 0.0 77.295347 -4.190664 88.397469
2902    1 2 0.0 71.853560 -6.296896 87.813599
2903    1 2 0.0 78.363093 -2.456158 86.628517
2904    1 2 0.0 79.731170 -0.315768 83.913428
2905    1 1 0.0 64.926511 -9.708227 96.448489
2906    1 1 0.0 73.726951 -6.430694 93.252000
2907    1 1 0.0 65.048220 -9.954372 92.909756
2908    1 1 0.0 70.248379 -8.694805 93.315784
2909    1 2 0.0 66.463044 -8.660714 95.659028
2910    1 2 0.0 71.462666 -8.238825 91.829228
2911    1 2 0.0 69.995218 -6.444193 90.218417
2912    1 2 0.0 67.668901 -9.284249 92.494821
2913    1 2 0.0 70.291218 -9.194936 95.496049
2914    1 2 0.0 64.523377 -10.078835 94.912179
2915    1 2 0.0 71.707697 -7.731319 93.727097
2916    1 2 0.0 73.504928 -5.936083 91.012008
2917    1 1 0.0 57.023901 -11.917051 103.547069
2918    1 1 0.0 66.323905 -10.613248 100.350580
2919    1 1 0.0 57.089700 -12.183643 100.008336
2920    1 1 0.0 62.439114 -12.074434 100.414364
2921    1 2 0.0 58.750087 -11.225316 102.757608
2922    1 2 0.0 63.723138 -11.890878 98.927808
2923    1 2 0.0 62.676963 -9.822153 97.316997
2924    1 2 0.0 59.793218 -12.094088 99.593401
2925    1 2 0.0 62.373156 -12.572045 102.594629
2926    1 2 0.0 56.550367 -12.192064 102.010759
2927    1 2 0.0 64.071790 -11.448109 100.825677
2928    1 2 0.0 66.213699 -10.082411 98.110588
2929    1 1 0.0 48.830959 -12.370765 110.645649
2930    1 1 0.0 58.193400 -13.101975 107.449160
2931    1 1 0.0 48.837755 -12.645272 107.106916
2932    1 1 0.0 54.084987 -13.691556 107.512944
2933    1 2 0.0 50.665662 -12.067320 109.856188
2934    1 2 0.0 55.378396 -13.789052 106.026388
2935    1 2 0.0 54.802666 -11.543469 104.415577
2936    1 2 0.0 51.497038 -13.140494 106.691981
2937    1 2 0.0 53.913333 -14.163257 109.693209
2938    1 2 0.0 48.309282 -12.537256 109.109339
2939    1 2 0.0 55.814281 -13.431831 107.924257
2940    1 2 0.0 58.200193 -12.559861 105.209168
2941    1 1 0.0 40.732777 -11.048042 117.744229
2942    1 1 0.0 49.717595 -13.779896 114.547740
2943    1 1 0.0 40.680250 -11.317562 114.205496
2944    1 1 0.0 45.578666 -13.470160 114.611524
2945    1 2 0.0 42.589762 -11.147150 116.954768
2946    1 2 0.0 46.820665 -13.844125 113.124968
2947    1 2 0.0 46.742442 -11.527233 111.514157
2948    1 2 0.0 43.170304 -12.374285 113.790561
2949    1 2 0.0 45.309383 -13.893780 116.791789
2950    1 2 0.0 40.187477 -11.098187 116.207919
2951    1 2 0.0 47.323296 -13.589244 115.022837
2952    1 2 0.0 49.841066 -13.251986 112.307748
2953    1 1 0.0 33.109992 -8.011054 124.842809
2954    1 1 0.0 41.294874 -12.615147 121.646320
2955    1 1 0.0 33.000611 -8.262919 121.304076
2956    1 1 0.0 37.319971 -11.420654 121.710104
2957    1 2 0.0 34.901974 -8.508058 124.053348
2958    1 2 0.0 38.452183 -12.053510 120.223548
2959    1 2 0.0 38.875144 -9.774209 118.612737
2960    1 2 0.0 35.204397 -9.831474 120.889141
2961    1 2 0.0 36.965716 -11.776281 123.890369
2962    1 2 0.0 32.566699 -7.942495 123.306499
2963    1 2 0.0 38.997935 -11.912947 122.121417
2964    1 2 0.0 41.529221 -12.126255 119.406328
2965    1 1 0.0 26.320895 -3.402548 131.941389
2966    1 1 0.0 33.321130 -9.662475 128.744900
2967    1 1 0.0 26.159802 -3.624920 128.402656
2968    1 1 0.0 29.697085 -7.639368 128.808684
2969    1 2 0.0 27.963648 -4.274086 131.151928
2970    1 2 0.0 30.666293 -8.501370 127.322128
2971    1 2 0.0 31.570557 -6.366794 125.711317
2972    1 2 0.0 27.973735 -5.631579 127.987721
2973    1 2 0.0 29.274509 -7.910287 130.988949
2974    1 2 0.0 25.805147 -3.218508 130.405079
2975    1 2 0.0 31.229513 -8.481733 129.219997
2976    1 2 0.0 33.655337 -9.235580 126.504908
2977    1 1 0.0 20.684595 2.560863 139.039969
2978    1 1 0.0 26.171151 -5.060664 135.843480
2979    1 1 0.0 20.479361 2.378436 135.501236
2980    1 1 0.0 23.068304 -2.304035 135.907264
2981    1 2 0.0 22.100903 1.355755 138.250508
2982    1 2 0.0 23.828952 -3.354666 134.420708
2983    1 2 0.0 25.172017 -1.465146 132.809897
2984    1 2 0.0 21.818182 0.027991 135.086301
2985    1 2 0.0 22.597270 -2.477512 138.087529
2986    1 2 0.0 20.220633 2.851734 137.503659
2987    1 2 0.0 24.383168 -3.456878 136.318577
2988    1 2 0.0 26.589510 -4.715831 133.603488
2989    1 1 0.0 16.466012 9.598882 146.138549
2990    1 1 0.0 20.181007 0.973988 142.942060
2991    1 1 0.0 16.226284 9.464975 142.599816
2992    1 1 0.0 17.745199 4.334570 143.005844
2993    1 2 0.0 17.589306 8.116847 145.349088
2994    1 2 0.0 18.261536 3.144692 141.519288
2995    1 2 0.0 19.980273 4.700344 139.908477
2996    1 2 0.0 17.027064 6.881221 142.184881
2997    1 2 0.0 17.247847 4.266689 145.186109
2998    1 2 0.0 16.075643 9.982912 144.602239
2999    1 2 0.0 18.780698 2.925436 143.417157
3000    1 2 0.0 20.663853 1.220551 140.702068
3001    1 1 0.0 13.863432 17.380703 153.237129
3002    1 1 0.0 15.632250 8.157836 150.040640
3003    1 1 0.0 13.600479 17.301610 149.698396
3004    1 1 0.0 13.977973 11.964414 150.104424
3005    1 2 0.0 14.640913 15.691401 152.447668
3006    1 2 0.0 14.225727 10.691218 148.617868
3007    1 2 0.0 16.239351 11.839880 147.007057
3008    1 2 0.0 13.825578 14.605990 149.283461
3009    1 2 0.0 13.477679 12.005320 152.284689
3010    1 2 0.0 13.565005 17.839841 151.700819
3011    1 2 0.0 14.685433 10.365222 150.515737
3012    1 2 0.0 16.156889 8.294539 147.800648
3013    1 1 0.0 12.999184 25.540557 160.335709
3014    1 1 0.0 12.738685 16.153219 157.139220
3015    1 1 0.0 12.725364 25.519996 156.796976
3016    1 1 0.0 11.943694 20.226873 157.203004
3017    1 2 0.0 13.394309 23.723391 159.546248
3018    1 2 0.0 11.911222 18.930201 155.716448
3019    1 2 0.0 14.125087 19.617885 154.105637
3020    1 2 0.0 12.364203 22.839213 156.382041
3021    1 2 0.0 11.463974 20.374642 159.383269
3022    1 2 0.0 12.806725 26.053223 158.799399
3023    1 2 0.0 12.289864 18.512790 157.614317
3024    1 2 0.0 13.280457 16.173637 154.899228
3025    1 1 0.0 13.913889 33.694910 167.434289
3026    1 1 0.0 11.636318 24.584331 164.237800
3027    1 1 0.0 13.642073 33.733847 163.895556
3028    1 1 0.0 11.737979 28.733588 164.301584
3029    1 2 0.0 13.908085 31.835291 166.644828
3030    1 2 0.0 11.426807 27.474388 162.815028
3031    1 2 0.0 13.736855 27.668770 161.204217
3032    1 2 0.0 12.711627 31.193905 163.480621
3033    1 2 0.0 11.301381 28.981275 166.481849
3034    1 2 0.0 13.836445 34.237007 165.897979
3035    1 2 0.0 11.706589 26.985180 164.712897
3036    1 2 0.0 12.169758 24.487505 161.997808
3037    1 1 0.0 16.564555 41.460483 174.532869
3038    1 1 0.0 12.376963 33.054886 171.336380
3039    1 1 0.0 16.307518 41.557088 170.994136
3040    1 1 0.0 13.370499 37.084720 171.400164
3041    1 2 0.0 16.158095 39.645819 173.743408
3042    1 2 0.0 12.795252 35.922178 169.913608
3043    1 2 0.0 15.092904 35.614121 168.302797
3044    1 2 0.0 14.851521 39.277371 170.579201
3045    1 2 0.0 12.997544 37.420683 173.580429
3046    1 2 0.0 16.605765 42.006531 172.996559
3047    1 2 0.0 12.963022 35.384167 171.811477
3048    1 2 0.0 12.876998 32.845367 169.096388
3049    1 1 0.0 20.826591 48.472273 181.631449
3050    1 1 0.0 14.925808 41.166745 178.434960
3051    1 1 0.0 20.596415 48.622005 178.092716
3052    1 1 0.0 16.764519 44.887741 178.498744
3053    1 2 0.0 20.038580 46.787858 180.841988
3054    1 2 0.0 15.952236 43.876500 177.012188
3055    1 2 0.0 18.129497 43.080484 175.401377
3056    1 2 0.0 18.683304 46.709666 177.677781
3057    1 2 0.0 16.472737 45.296190 180.679009
3058    1 2 0.0 20.984520 48.996606 180.095139
3059    1 2 0.0 16.000109 43.314975 178.910057
3060    1 2 0.0 15.368935 40.854380 176.194968
3061    1 1 0.0 26.499671 54.400706 188.730029
3062    1 1 0.0 19.163049 48.538627 185.533540
3063    1 1 0.0 26.307175 54.596527 185.191296
3064    1 1 0.0 21.760511 51.775889 185.597324
3065    1 2 0.0 25.367148 52.925712 187.940568
3066    1 2 0.0 20.749371 50.963479 184.110768
3067    1 2 0.0 22.703903 49.716920 182.499957
3068    1 2 0.0 24.026870 53.141452 184.776361
3069    1 2 0.0 21.563617 52.237624 187.777589
3070    1 2 0.0 26.766894 54.878679 187.193719
3071    1 2 0.0 20.675098 50.404833 186.008637
3072    1 2 0.0 19.528440 48.138099 183.293548
3073    1 1 0.0 33.317143 58.967129 195.828609
3074    1 1 0.0 24.889526 54.824033 192.632120
3075    1 1 0.0 33.171376 59.199835 192.289876
3076    1 1 0.0 28.123650 57.425400 192.695904
3077    1 2 0.0 31.893340 57.770885 195.039148
3078    1 2 0.0 26.961180 56.850008 191.209348
3079    1 2 0.0 28.601114 55.211496 189.598537
3080    1 2 0.0 30.631058 58.270417 191.874941
3081    1 2 0.0 28.030898 57.918719 194.876169
3082    1 2 0.0 33.681101 59.376276 194.292299
3083    1 2 0.0 26.768250 56.320498 193.107217
3084    1 2 0.0 25.160006 54.354167 190.392128
3085    1 1 0.0 40.958568 61.956907 202.927189
3086    1 1 0.0 31.836076 59.727532 199.730700
3087    1 1 0.0 40.866381 62.215561 199.388456
3088    1 1 0.0 35.554851 61.570732 199.794484
3089    1 2 0.0 39.310408 61.095640 202.137728
3090    1 2 0.0 34.295689 61.259403 198.307928
3091    1 2 0.0 35.543945 59.305953 196.697117
3092    1 2 0.0 38.185452 61.855484 198.973521
3093    1 2 0.0 35.570600 62.072448 201.974749
3094    1 2 0.0 41.402154 62.277997 201.390879
3095    1 2 0.0 33.993172 60.783918 200.205797
3096    1 2 0.0 31.998932 59.210414 197.490708
3097    1 1 0.0 49.064777 63.229513 4.703893
3098    1 1 0.0 39.676193 63.018645 1.507404
3099    1 1 0.0 49.030502 63.501957 1.165160
3100    1 1 0.0 43.704825 64.017043 1.571188
3101    1 2 0.0 47.269727 62.743704 3.914432
3102    1 2 0.0 42.408157 63.984410 0.084632
3103    1 2 0.0 43.206062 61.807840 203.795697
3104    1 2 0.0 46.334974 63.728146 0.750225
3105    1 2 0.0 43.828336 64.503574 3.751453
3106    1 2 0.0 49.567140 63.447454 3.167583
3107    1 2 0.0 42.010271 63.585299 1.982501
3108    1 2 0.0 39.723771 62.478580 204.589288
3109    1 1 0.0 57.254756 62.725130 11.802473
3110    1 1 0.0 48.041370 64.542681 8.605984
3111    1 1 0.0 57.280005 62.998558 8.263740
3112    1 1 0.0 52.190501 64.649349 8.669768
3113    1 2 0.0 55.397189 62.637615 11.013012
3114    1 2 0.0 50.917274 64.896946 7.183212
3115    1 2 0.0 51.227324 62.599561 5.572401
3116    1 2 0.0 54.696574 63.800382 7.848805
3117    1 2 0.0 52.415969 65.097826 10.850033
3118    1 2 0.0 57.792284 62.829678 10.266163
3119    1 2 0.0 50.442720 64.592969 9.081081
3120    1 2 0.0 47.971433 64.005054 6.365992
3121    1 1 0.0 65.143552 60.467466 18.901053
3122    1 1 0.0 56.538419 64.228005 15.704564
3123    1 1 0.0 65.227138 60.729026 15.362320
3124    1 1 0.0 60.613029 63.437931 15.768348
3125    1 2 0.0 63.310779 60.782357 18.111592
3126    1 2 0.0 59.423087 63.954119 14.281792
3127    1 2 0.0 59.230710 61.643903 12.670981
3128    1 2 0.0 62.877234 62.068797 14.947385
3129    1 2 0.0 60.929856 63.827274 17.948613
3130    1 2 0.0 65.690980 60.453707 17.364743
3131    1 2 0.0 58.894173 63.759563 16.179661
3132    1 2 0.0 56.354254 63.718087 13.464572
3133    1 1 0.0 72.801856 52.056930 23.764247
3134    1 1 0.0 67.329993 57.600784 19.286322
3135    1 1 0.0 73.181919 52.496396 20.258062
3136    1 1 0.0 70.981718 55.975953 19.292153
3137    1 2 0.0 71.024458 52.757833 23.172975
3138    1 2 0.0 70.449611 56.875312 17.493082
3139    1 2 0.0 67.563877 54.635307 18.005930
3140    1 2 0.0 71.884728 54.249763 19.336841
3141    1 2 0.0 72.014847 56.092102 20.730631
3142    1 2 0.0 73.462434 52.022929 22.198343
3143    1 2 0.0 69.337944 56.608762 19.788423
3144    1 2 0.0 66.614056 57.274497 17.590094
3145    1 1 0.0 78.026023 46.699214 30.862827
3146    1 1 0.0 73.877588 53.292096 26.384902
3147    1 1 0.0 78.491869 47.046440 27.356642
3148    1 1 0.0 77.093303 50.918417 26.390733
3149    1 2 0.0 76.441457 47.766717 30.271555
3150    1 2 0.0 76.767535 51.911322 24.591662
3151    1 2 0.0 73.466845 50.345905 25.104510
3152    1 2 0.0 77.603056 49.038175 26.435421
3153    1 2 0.0 78.127185 50.809173 27.829211
3154    1 2 0.0 78.663748 46.523642 29.296923
3155    1 2 0.0 75.624545 51.890627 26.887003
3156    1 2 0.0 73.108154 53.127778 24.688674
3157    1 1 0.0 81.972700 40.341479 37.961407
3158    1 1 0.0 79.342681 47.673506 33.483482
3159    1 1 0.0 82.502433 40.580145 34.455222
3160    1 1 0.0 81.971238 44.662549 33.489313
3161    1 2 0.0 80.655445 41.725406 37.370135
3162    1 2 0.0 81.867121 45.702330 31.690242
3163    1 2 0.0 78.306617 44.885080 32.203090
3164    1 2 0.0 82.063775 42.716632 33.534001
3165    1 2 0.0 82.957278 44.333046 34.927791
3166    1 2 0.0 82.557598 40.032589 36.395503
3167    1 2 0.0 80.746533 45.928463 33.985583
3168    1 2 0.0 78.555916 47.678881 31.787254
3169    1 1 0.0 84.456381 33.282558 45.059987
3170    1 1 0.0 83.468398 41.009103 40.582062
3171    1 1 0.0 85.025103 33.401444 41.553802
3172    1 1 0.0 85.386247 37.502392 40.587893
3173    1 2 0.0 83.468353 34.917861 44.468715
3174    1 2 0.0 85.508674 38.540176 38.788822
3175    1 2 0.0 81.855710 38.509506 39.301670
3176    1 2 0.0 85.057217 35.582262 40.632581
3177    1 2 0.0 86.278098 36.968117 42.026371
3178    1 2 0.0 84.960960 32.854868 43.494083
3179    1 2 0.0 84.463158 39.002508 41.084163
3180    1 2 0.0 82.701281 41.183919 38.885834
3181    1 1 0.0 85.360327 25.854239 52.158567
3182    1 1 0.0 86.060817 33.612134 47.680642
3183    1 1 0.0 85.941306 25.847758 48.652382
3184    1 1 0.0 87.177815 29.774493 47.686473
3185    1 2 0.0 84.747966 27.664053 51.567295
3186    1 2 0.0 87.521031 30.761502 45.887402
3187    1 2 0.0 83.947307 31.518852 46.400250
3188    1 2 0.0 86.442684 27.970403 47.731161
3189    1 2 0.0 87.933556 29.060559 49.124951
3190    1 2 0.0 85.760870 25.327852 50.592663
3191    1 2 0.0 86.599730 31.438301 48.182743
3192    1 2 0.0 85.349405 33.948173 45.984414
3193    1 1 0.0 84.642050 18.405675 59.257147
3194    1 1 0.0 86.998088 25.830275 54.779222
3195    1 1 0.0 85.207978 18.274131 55.750962
3196    1 1 0.0 87.261732 21.842085 54.785053
3197    1 2 0.0 84.434138 20.304934 58.665875
3198    1 2 0.0 87.809606 22.731926 52.985982
3199    1 2 0.0 84.483097 24.241701 53.498830
3200    1 2 0.0 86.155053 20.238831 54.829741
3201    1 2 0.0 87.845843 20.982049 56.223531
3202    1 2 0.0 84.919731 17.805331 57.691243
3203    1 2 0.0 87.055823 23.591382 55.281323
3204    1 2 0.0 86.375820 26.311743 53.082994
3205    1 1 0.0 82.335311 11.286967 66.355727
3206    1 1 0.0 86.236156 18.029297 61.877802
3207    1 1 0.0 82.859588 11.036545 62.849542
3208    1 1 0.0 85.634054 14.078013 61.883633
3209    1 2 0.0 82.541620 13.186401 65.764455
3210    1 2 0.0 86.360835 14.828862 60.084562
3211    1 2 0.0 83.437895 17.020097 60.597410
3212    1 2 0.0 84.207845 12.750954 61.928321
3213    1 2 0.0 86.019080 13.112300 63.322111
3214    1 2 0.0 82.477077 10.640886 64.789823
3215    1 2 0.0 85.810000 15.830578 62.379903
3216    1 2 0.0 85.732280 18.633564 60.181574
3217    1 1 0.0 78.548532 4.832717 73.454307
3218    1 1 0.0 83.810835 10.575868 68.976382
3219    1 1 0.0 79.006516 4.475185 69.948122
3220    1 1 0.0 82.371287 6.847212 68.982213
3221    1 2 0.0 79.159367 6.643047 72.863035
3222    1 2 0.0 83.242814 7.423776 67.183142
3223    1 2 0.0 80.860830 10.193476 67.695990
3224    1 2 0.0 80.692584 5.858722 69.026901
3225    1 2 0.0 82.539131 5.821212 70.420691
3226    1 2 0.0 78.547722 4.171265 71.888403
3227    1 2 0.0 82.920818 8.520668 69.478483
3228    1 2 0.0 83.449035 11.274530 67.280154
3229    1 1 0.0 73.459704 -0.653709 80.552887
3230    1 1 0.0 79.836121 3.820319 76.074962
3231    1 1 0.0 73.829869 -1.101545 77.046702
3232    1 1 0.0 77.626791 0.489548 76.080793
3233    1 2 0.0 74.446352 0.982426 79.961615
3234    1 2 0.0 78.602099 0.864728 74.281722
3235    1 2 0.0 76.873031 4.082710 74.794570
3236    1 2 0.0 75.774496 -0.113910 76.125481
3237    1 2 0.0 77.569562 -0.548514 77.519271
3238    1 2 0.0 73.316354 -1.299441 78.986983
3239    1 2 0.0 78.524076 2.005239 76.577063
3240    1 2 0.0 79.633402 4.580538 74.378734
3241    1 1 0.0 67.308016 -4.914433 87.651467
3242    1 1 0.0 74.498837 -1.919821 83.173542
3243    1 1 0.0 67.572961 -5.431523 84.145282
3244    1 1 0.0 71.623569 -4.696151 83.179373
3245    1 2 0.0 68.624102 -3.529395 87.060195
3246    1 2 0.0 72.656816 -4.539990 81.380302
3247    1 2 0.0 71.661936 -1.024979 81.893150
3248    1 2 0.0 69.684746 -4.886213 83.224061
3249    1 2 0.0 71.343958 -5.697482 84.617851
3250    1 2 0.0 67.028864 -5.514094 86.085563
3251    1 2 0.0 72.826434 -3.409466 83.675643
3252    1 2 0.0 74.464727 -1.133777 81.477314
3253    1 1 0.0 60.382614 -7.749189 94.750047
3254    1 1 0.0 68.049850 -6.374747 90.272122
3255    1 1 0.0 60.529887 -8.311229 91.243862
3256    1 1 0.0 64.643790 -8.466141 90.277953
3257    1 2 0.0 61.966278 -6.680349 94.158775
3258    1 2 0.0 65.686410 -8.536339 88.478882
3259    1 2 0.0 65.472480 -4.889516 88.991730
3260    1 2 0.0 62.709569 -8.233874 90.322641
3261    1 2 0.0 64.154940 -9.383677 91.716431
3262    1 2 0.0 59.980781 -8.274593 93.184143
3263    1 2 0.0 66.095697 -7.468941 90.774223
3264    1 2 0.0 68.185953 -5.599825 88.575894
3265    1 1 0.0 53.009011 -9.024735 101.848627
3266    1 1 0.0 60.792281 -9.335066 97.370702
3267    1 1 0.0 53.031690 -9.605307 98.342442
3268    1 1 0.0 57.015523 -10.643222 97.376533
3269    1 2 0.0 54.785817 -8.322332 101.257355
3270    1 2 0.0 58.018511 -10.936481 95.577462
3271    1 2 0.0 58.595585 -7.329256 96.090310
3272    1 2 0.0 55.176819 -9.999544 97.421221
3273    1 2 0.0 56.340411 -11.433836 98.815011
3274    1 2 0.0 52.503385 -9.451187 100.282723
3275    1 2 0.0 58.648229 -9.982379 97.872803
3276    1 2 0.0 61.092200 -8.607689 95.674474
3277    1 1 0.0 45.533787 -8.681118 108.947207
3278    1 1 0.0 53.067256 -10.661635 104.469282
3279    1 1 0.0 45.430807 -9.252934 105.441022
3280    1 1 0.0 49.097319 -11.125067 104.475113
3281    1 2 0.0 47.420221 -8.378167 108.355935
3282    1 2 0.0 50.013531 -11.627601 102.676042
3283    1 2 0.0 51.354485 -8.229524 103.188890
3284    1 2 0.0 47.440554 -10.100231 104.519801
3285    1 2 0.0 48.267677 -11.751598 105.913591
3286    1 2 0.0 44.948134 -8.988573 107.381303
3287    1 2 0.0 50.834081 -10.831642 104.971383
3288    1 2 0.0 53.516894 -10.015992 102.773054
3289    1 1 0.0 38.308299 -6.734488 116.045787
3290    1 1 0.0 45.237873 -10.292102 111.567862
3291    1 1 0.0 38.084499 -7.270671 112.539602
3292    1 1 0.0 41.261354 -9.889026 111.573693
3293    1 2 0.0 40.215693 -6.845228 115.454515
3294    1 2 0.0 42.047726 -10.577216 109.774622
3295    1 2 0.0 44.089532 -7.548006 110.287470
3296    1 2 0.0 39.864403 -8.531203 111.618381
3297    1 2 0.0 40.316178 -10.322025 113.012171
3298    1 2 0.0 37.670146 -6.908495 114.479883
3299    1 2 0.0 43.020540 -9.976810 112.069963
3300    1 2 0.0 45.816095 -9.758540 109.871634
3301    1 1 0.0 31.672166 -3.276342 123.144367
3302    1 1 0.0 37.672135 -8.243835 118.666442
3303    1 1 0.0 31.338065 -3.751689 119.638182
3304    1 1 0.0 33.875942 -6.993198 118.672273
3305    1 2 0.0 33.510866 -3.795568 122.553095
3306    1 2 0.0 34.495512 -7.834696 116.873202
3307    1 2 0.0 37.142199 -5.316734 117.386050
3308    1 2 0.0 32.804464 -5.366209 118.716961
3309    1 2 0.0 32.859657 -7.212312 120.110751
3310    1 2 0.0 31.011507 -3.308723 121.578463
3311    1 2 0.0 35.574865 -7.458065 119.168543
3312    1 2 0.0 38.351762 -7.847433 116.970214
3313    1 1 0.0 25.937304 1.530777 130.242947
3314    1 1 0.0 30.725652 -4.613109 125.765022
3315    1 1 0.0 25.508606 1.138607 126.736762
3316    1 1 0.0 27.288217 -2.573694 125.770853
3317    1 2 0.0 27.620886 0.627470 129.651675
3318    1 2 0.0 27.711863 -3.528947 123.971782
3319    1 2 0.0 30.839030 -1.640585 124.484630
3320    1 2 0.0 26.592575 -0.754013 125.815541
3321    1 2 0.0 26.248591 -2.568625 127.209331
3322    1 2 0.0 25.285192 1.641545 128.677043
3323    1 2 0.0 28.847023 -3.393794 126.267123
3324    1 2 0.0 31.474741 -4.372499 124.068794
3325    1 1 0.0 21.373267 7.460921 137.341527
3326    1 1 0.0 24.724929 0.429422 132.863602
3327    1 1 0.0 20.870123 7.170362 133.835342
3328    1 1 0.0 21.807821 3.161757 132.869433
3329    1 2 0.0 22.822599 6.215991 136.750255
3330    1 2 0.0 22.015631 2.137648 131.070362
3331    1 2 0.0 25.476292 3.307651 131.583210
3332    1 2 0.0 21.520712 5.088601 132.914121
3333    1 2 0.0 20.793720 3.390771 134.307911
3334    1 2 0.0 20.760354 7.709631 135.775623
3335    1 2 0.0 23.153242 2.024970 133.365703
3336    1 2 0.0 25.508271 0.502931 131.167374
3337    1 1 0.0 18.194578 14.235356 144.440107
3338    1 1 0.0 19.952017 6.646745 139.962182
3339    1 1 0.0 17.640636 14.060066 140.933922
3340    1 1 0.0 17.692348 9.943572 139.968013
3341    1 2 0.0 19.341537 12.707319 143.848835
3342    1 2 0.0 17.674554 8.898743 138.168942
3343    1 2 0.0 21.306049 9.295395 138.681790
3344    1 2 0.0 17.827266 11.887011 140.012701
3345    1 2 0.0 16.751438 10.385767 141.406491
3346    1 2 0.0 17.649673 14.610319 142.874203
3347    1 2 0.0 18.761145 8.543532 140.464283
3348    1 2 0.0 20.732792 6.549698 138.265954
3349    1 1 0.0 16.550645 21.535666 151.538687
3350    1 1 0.0 16.631255 13.746628 147.060762
3351    1 1 0.0 15.971943 21.483883 148.032502
3352    1 1 0.0 15.135236 17.452988 147.066593
3353    1 2 0.0 17.341320 19.796343 150.947415
3354    1 2 0.0 14.892675 16.436548 145.267522
3355    1 2 0.0 18.524313 16.041205 145.780370
3356    1 2 0.0 15.685842 19.321675 147.111281
3357    1 2 0.0 14.311743 18.087578 148.505071
3358    1 2 0.0 16.099359 22.019257 149.972783
3359    1 2 0.0 15.877173 15.855499 147.562863
3360    1 2 0.0 17.372765 13.483586 145.364534
3361    1 1 0.0 16.518737 29.018715 158.637267
3362    1 1 0.0 14.918730 21.395357 154.159342
3363    1 1 0.0 15.942474 29.092873 155.131082
3364    1 1 0.0 14.256678 25.337040 154.165173
3365    1 2 0.0 16.915964 27.149859 158.045995
3366    1 2 0.0 13.800751 24.396766 152.366102
3367    1 2 0.0 17.261834 23.228010 152.878950
3368    1 2 0.0 15.197090 27.043141 154.209861
3369    1 2 0.0 13.589307 26.134199 155.603651
3370    1 2 0.0 16.182282 29.588203 157.071363
3371    1 2 0.0 14.636881 23.617189 154.661443
3372    1 2 0.0 15.586121 20.978684 152.463114
3373    1 1 0.0 18.100354 36.332779 165.735847
3374    1 1 0.0 14.894934 29.233420 161.257922
3375    1 1 0.0 17.553617 36.529393 162.229662
3376    1 1 0.0 15.097968 33.225156 161.263753
3377    1 2 0.0 18.085463 34.422232 165.144575
3378    1 2 0.0 14.450104 32.405242 159.464682
3379    1 2 0.0 17.577952 30.518008 159.977530
3380    1 2 0.0 16.383984 34.688480 161.308441
3381    1 2 0.0 14.618087 34.147414 162.702231
3382    1 2 0.0 17.894544 36.961397 164.169943
3383    1 2 0.0 15.098567 31.463781 161.760023
3384    1 2 0.0 15.456838 28.682700 159.561694
3385    1 1 0.0 21.221154 43.134076 172.834427
3386    1 1 0.0 16.560986 36.892406 168.356502
3387    1 1 0.0 20.729641 43.443904 169.328242
3388    1 1 0.0 17.619562 40.746572 168.362333
3389    1 2 0.0 20.794845 41.271639 172.243155
3390    1 2 0.0 16.810213 40.085557 166.563262
3391    1 2 0.0 19.457808 37.568550 167.076110
3392    1 2 0.0 19.190736 41.898339 168.407021
3393    1 2 0.0 17.349728 41.750582 169.800811
3394    1 2 0.0 21.155664 43.792278 171.268523
3395    1 2 0.0 17.240529 39.026462 168.858603
3396    1 2 0.0 16.990991 36.233525 166.660274
3397    1 1 0.0 25.734453 49.102926 179.933007
3398    1 1 0.0 19.838577 44.012321 175.455082
3399    1 1 0.0 25.321267 49.511405 176.426822
3400    1 1 0.0 21.702939 47.547760 175.460913
3401    1 2 0.0 24.916763 47.376139 179.341735
3402    1 2 0.0 20.770147 47.076715 173.661842
3403    1 2 0.0 22.813045 44.048241 174.174690
3404    1 2 0.0 23.485422 48.333834 175.505601
3405    1 2 0.0 21.655835 48.586330 176.899391
3406    1 2 0.0 25.812360 49.759774 178.367103
3407    1 2 0.0 20.962090 45.949767 175.957183
3408    1 2 0.0 20.116472 43.276249 173.758854
3409    1 1 0.0 31.428112 53.958777 187.031587
3410    1 1 0.0 24.573651 50.258510 182.553662
3411    1 1 0.0 31.112673 54.446708 183.525402
3412    1 1 0.0 27.156169 53.309047 182.559493
3413    1 2 0.0 30.257475 52.448803 186.440315
3414    1 2 0.0 26.143778 53.050110 180.760422
3415    1 2 0.0 27.485957 49.652517 181.273270
3416    1 2 0.0 29.066179 53.692480 182.604181
3417    1 2 0.0 27.334009 54.333361 183.997971
3418    1 2 0.0 31.645754 54.583397 185.465683
3419    1 2 0.0 26.088325 51.908279 183.055763
3420    1 2 0.0 24.686374 49.479843 180.857434
3421    1 1 0.0 38.034513 57.473390 194.130167
3422    1 1 0.0 30.543646 55.337383 189.652242
3423    1 1 0.0 37.831648 58.017838 190.623982
3424    1 1 0.0 33.722935 57.759634 189.658073
3425    1 2 0.0 36.565953 56.251202 193.538895
3426    1 2 0.0 32.678529 57.724978 187.859002
3427    1 2 0.0 33.256903 54.117961 188.371850
3428    1 2 0.0 35.670695 57.722404 189.702761
3429    1 2 0.0 34.117359 58.721547 191.096551
3430    1 2 0.0 38.381661 58.036424 192.564263
3431    1 2 0.0 32.378288 56.621932 190.154343
3432    1 2 0.0 30.485899 54.552722 187.956014
3433    1 1 0.0 45.243137 59.481568 201.228747
3434    1 1 0.0 37.467956 59.010220 196.750822
3435    1 1 0.0 45.162381 60.056943 197.722562
3436    1 1 0.0 41.094579 60.690333 196.756653
3437    1 2 0.0 43.545680 58.604613 200.637475
3438    1 2 0.0 40.067249 60.881585 194.957582
3439    1 2 0.0 39.854633 57.234685 195.470430
3440    1 2 0.0 42.988541 60.234188 196.801341
3441    1 2 0.0 41.687049 61.544632 198.195131
3442    1 2 0.0 45.703474 59.956551 199.662843
3443    1 2 0.0 39.536332 59.869172 197.252923
3444    1 2 0.0 37.242453 58.256445 195.054594
3445    1 1 0.0 52.715159 59.888921 3.005451
3446    1 1 0.0 45.021118 61.104387 203.849402
3447    1 1 0.0 52.760307 60.468179 204.821142
3448    1 1 0.0 48.924615 61.963391 203.855233
3449    1 2 0.0 50.868589 59.398419 2.414179
3450    1 2 0.0 47.962648 62.371563 202.056162
3451    1 2 0.0 46.969035 58.856194 202.569010
3452    1 2 0.0 50.675756 61.109773 203.899921
3453    1 2 0.0 49.687282 62.669922 205.293711
3454    1 2 0.0 53.267047 60.253528 1.439547
3455    1 2 0.0 47.226009 61.497368 204.351503
3456    1 2 0.0 44.638458 60.416928 202.153174
3457    1 1 0.0 60.099371 58.676303 10.104031
3458    1 1 0.0 52.848114 61.521452 5.626106
3459    1 1 0.0 60.268303 59.232217 6.597846
3460    1 1 0.0 56.845008 61.518972 5.631937
3461    1 2 0.0 58.190484 58.595307 9.512759
3462    1 2 0.0 55.993619 62.124878 3.832866
3463    1 2 0.0 54.265712 58.906273 4.345714
3464    1 2 0.0 58.371020 60.308003 5.676625
3465    1 2 0.0 57.742026 62.044525 7.070415
3466    1 2 0.0 60.716871 58.913396 8.538127
3467    1 2 0.0 55.085883 61.429991 6.128207
3468    1 2 0.0 52.326283 60.932622 3.929878
3469    1 1 0.0 67.048697 55.900710 17.202611
3470    1 1 0.0 60.581051 60.241812 12.724686
3471    1 1 0.0 67.333471 56.407150 13.696426
3472    1 1 0.0 64.483479 59.377965 12.730517
3473    1 2 0.0 65.167214 56.233028 16.611339
3474    1 2 0.0 63.782685 60.153125 10.931446
3475    1 2 0.0 61.401700 57.382567 11.444294
3476    1 2 0.0 65.712634 57.866563 12.775205
3477    1 2 0.0 65.472684 59.697838 14.168995
3478    1 2 0.0 67.702783 55.999145 15.636707
3479    1 2 0.0 62.746517 59.670208 13.226787
3480    1 2 0.0 59.944577 59.779287 11.028458
3481    1 1 0.0 71.429693 47.675826 24.183950
3482    1 1 0.0 67.818369 52.989857 18.695589
3483    1 1 0.0 71.787989 48.224270 20.931515
3484    1 1 0.0 71.085228 51.491785 18.832272
3485    1 2 0.0 69.716655 48.294493 23.678033
3486    1 2 0.0 70.888816 52.448307 16.887879
3487    1 2 0.0 66.539317 50.075959 18.831961
3488    1 2 0.0 71.166889 49.856291 19.548442
3489    1 2 0.0 72.469928 51.554566 19.803718
3490    1 2 0.0 72.058642 47.720344 22.725435
3491    1 2 0.0 69.559914 52.040975 19.282925
3492    1 2 0.0 66.827276 52.698745 17.400008
3493    1 1 0.0 75.741876 42.716806 31.282530
3494    1 1 0.0 73.360722 48.684275 25.794169
3495    1 1 0.0 76.209954 43.175139 28.030095
3496    1 1 0.0 76.227936 46.517324 25.930852
3497    1 2 0.0 74.202434 43.690133 30.776613
3498    1 2 0.0 76.242293 47.493699 23.986459
3499    1 2 0.0 71.483716 46.114524 25.930541
3500    1 2 0.0 75.955190 44.902668 26.647022
3501    1 2 0.0 77.593625 46.280194 26.902298
3502    1 2 0.0 76.365638 42.624725 29.824015
3503    1 2 0.0 74.856832 47.382350 26.381505
3504    1 2 0.0 72.330180 48.613609 24.498588
3505    1 1 0.0 78.883930 36.944952 38.381110
3506    1 1 0.0 77.844868 43.285373 32.892749
3507    1 1 0.0 79.439789 37.291632 35.128675
3508    1 1 0.0 80.177669 40.551395 33.029432
3509    1 2 0.0 77.590442 38.227191 37.875193
3510    1 2 0.0 80.402120 41.501730 31.085039
3511    1 2 0.0 75.458131 41.180554 33.029121
3512    1 2 0.0 79.563336 39.033468 33.745602
3513    1 2 0.0 81.460154 40.025500 34.000878
3514    1 2 0.0 79.473187 36.720599 36.922595
3515    1 2 0.0 79.025221 41.691597 33.480085
3516    1 2 0.0 76.823315 43.438474 31.597168
3517    1 1 0.0 80.708169 30.631557 45.479690
3518    1 1 0.0 81.060038 37.046912 39.991329
3519    1 1 0.0 81.325682 30.850289 42.227255
3520    1 1 0.0 82.748778 33.874413 40.128012
3521    1 2 0.0 79.721433 32.162439 44.973773
3522    1 2 0.0 83.172774 34.754038 38.183619
3523    1 2 0.0 78.275755 35.505957 40.127701
3524    1 2 0.0 81.821733 32.524562 40.844182
3525    1 2 0.0 83.887780 33.084470 41.099458
3526    1 2 0.0 81.235224 30.285478 44.021175
3527    1 2 0.0 81.869154 35.236198 40.578665
3528    1 2 0.0 80.095490 37.416584 38.695748
3529    1 1 0.0 81.128850 24.073369 52.578270
3530    1 1 0.0 82.855110 30.262118 47.089909
3531    1 1 0.0 81.778992 24.153872 49.325835
3532    1 1 0.0 83.820414 26.800213 47.226592
3533    1 2 0.0 80.495245 25.780939 52.072353
3534    1 2 0.0 84.424026 27.567785 45.282199
3535    1 2 0.0 79.804149 29.357457 47.226281
3536    1 2 0.0 82.624231 25.681887 47.942762
3537    1 2 0.0 84.762397 25.783354 48.198038
3538    1 2 0.0 81.568930 23.621831 51.119755
3539    1 2 0.0 83.254960 28.319574 47.677245
3540    1 2 0.0 81.992904 30.830985 45.794328
3541    1 1 0.0 80.126199 17.578641 59.676850
3542    1 1 0.0 83.145712 23.249896 54.188489
3543    1 1 0.0 80.778412 17.517131 56.424415
3544    1 1 0.0 83.342206 19.661305 54.325172
3545    1 2 0.0 79.875506 19.382637 59.170933
3546    1 2 0.0 84.097063 20.280745 52.380779
3547    1 2 0.0 79.971477 23.024050 54.324861
3548    1 2 0.0 81.933110 18.827066 55.041342
3549    1 2 0.0 84.042894 18.465323 55.296618
3550    1 2 0.0 80.458619 17.042867 58.218335
3551    1 2 0.0 83.117500 21.266827 54.775825
3552    1 2 0.0 82.426373 23.991219 52.892908
3553    1 1 0.0 77.747343 11.452644 66.775430
3554    1 1 0.0 81.918183 16.339839 61.287069
3555    1 1 0.0 78.370971 11.252011 63.522995
3556    1 1 0.0 81.336633 12.793236 61.423752
3557    1 2 0.0 77.891346 13.268274 66.269513
3558    1 2 0.0 82.207254 13.235429 59.479359
3559    1 2 0.0 78.769872 16.803424 61.423441
3560    1 2 0.0 79.780854 12.282296 62.139922
3561    1 2 0.0 81.763092 11.474346 62.395198
3562    1 2 0.0 77.956479 10.857816 65.316915
3563    1 2 0.0 81.463236 14.409456 61.874405
3564    1 2 0.0 81.375523 17.218775 59.991488
3565    1 1 0.0 74.104096 5.983316 73.874010
3566    1 1 0.0 79.230222 9.856739 68.385649
3567    1 1 0.0 74.669827 5.652992 70.621575
3568    1 1 0.0 77.897962 6.518824 68.522332
3569    1 2 0.0 74.636026 7.725239 73.368093
3570    1 2 0.0 78.843424 6.762986 66.577939
3571    1 2 0.0 76.255814 10.987966 68.522021
3572    1 2 0.0 76.268627 6.355200 69.238502
3573    1 2 0.0 78.030146 5.139019 69.493778
3574    1 2 0.0 74.180117 5.357393 72.415495
3575    1 2 0.0 78.369923 8.069775 68.972985
3576    1 2 0.0 78.889746 10.831976 67.090068
3577    1 1 0.0 69.367700 1.427731 80.972590
3578    1 1 0.0 75.208170 4.105321 75.484229
3579    1 1 0.0 69.848942 0.983241 77.720155
3580    1 1 0.0 73.187820 1.132986 75.620912
3581    1 2 0.0 70.262554 3.014073 80.466673
3582    1 2 0.0 74.163685 1.167640 73.676519
3583    1 2 0.0 72.547471 5.851018 75.620601
3584    1 2 0.0 71.561511 1.324368 76.337082
3585    1 2 0.0 73.019516 -0.242881 76.592358
3586    1 2 0.0 69.307033 0.800134 79.514075
3587    1 2 0.0 73.982956 2.545768 76.071565
3588    1 2 0.0 75.085882 5.131019 74.188648
3589    1 1 0.0 63.760779 -1.999986 88.071170
3590    1 1 0.0 70.041074 -0.644082 82.582809
3591    1 1 0.0 64.134914 -2.537748 84.818735
3592    1 1 0.0 67.427596 -3.111130 82.719492
3593    1 2 0.0 64.976498 -0.643787 87.565253
3594    1 2 0.0 68.387996 -3.287613 80.775099
3595    1 2 0.0 67.819145 1.634032 82.719181
3596    1 2 0.0 65.880755 -2.573738 83.435662
3597    1 2 0.0 66.966716 -4.418389 83.690938
3598    1 2 0.0 63.566276 -2.599758 86.612655
3599    1 2 0.0 68.508534 -1.902921 83.170145
3600    1 2 0.0 70.142723 0.383866 81.287228
3601    1 1 0.0 57.546874 -4.138721 95.169750
3602    1 1 0.0 63.971803 -4.168236 89.681389
3603    1 1 0.0 57.796316 -4.744481 91.917315
3604    1 1 0.0 60.888038 -6.014039 89.818072
3605    1 2 0.0 59.026315 -3.076411 94.663833
3606    1 2 0.0 61.787831 -6.393363 87.873679
3607    1 2 0.0 62.293080 -1.464782 89.817761
3608    1 2 0.0 59.493371 -5.155895 90.534242
3609    1 2 0.0 60.156244 -7.191244 90.789518
3610    1 2 0.0 57.227677 -4.682478 93.711235
3611    1 2 0.0 62.203970 -5.067192 90.268725
3612    1 2 0.0 64.292610 -3.186354 88.385808
3613    1 1 0.0 51.018056 -4.887949 102.268330
3614    1 1 0.0 57.285629 -6.301496 96.779969
3615    1 1 0.0 51.131080 -5.533233 99.015895
3616    1 1 0.0 53.876523 -7.439295 96.916652
3617    1 2 0.0 52.691682 -4.169460 101.762413
3618    1 2 0.0 54.673416 -8.003631 94.972259
3619    1 2 0.0 56.229017 -3.299772 96.916341
3620    1 2 0.0 52.699583 -6.300734 97.632822
3621    1 2 0.0 52.908211 -8.431115 97.888098
3622    1 2 0.0 50.589169 -5.350133 100.809815
3623    1 2 0.0 55.365597 -6.798314 97.367305
3624    1 2 0.0 57.810516 -5.411830 95.484388
3625    1 1 0.0 44.481199 -4.212454 109.366910
3626    1 1 0.0 50.296822 -6.943591 103.878549
3627    1 1 0.0 44.452492 -4.866933 106.114475
3628    1 1 0.0 46.722612 -7.319907 104.015232
3629    1 2 0.0 46.270343 -3.871556 108.860993
3630    1 2 0.0 47.379149 -8.042730 102.070839
3631    1 2 0.0 49.911984 -3.784687 104.014921
3632    1 2 0.0 45.818718 -5.954446 104.731402
3633    1 2 0.0 45.563296 -8.079724 104.986678
3634    1 2 0.0 43.962779 -4.571340 107.908395
3635    1 2 0.0 48.314837 -7.014921 104.465885
3636    1 2 0.0 51.001117 -6.187960 102.582968
3637    1 1 0.0 38.243552 -2.143986 116.465490
3638    1 1 0.0 43.333875 -6.064343 110.977129
3639    1 1 0.0 38.074464 -2.776897 113.213055
3640    1 1 0.0 39.762559 -5.661487 111.113812
3641    1 2 0.0 40.064120 -2.196703 115.959573
3642    1 2 0.0 40.247881 -6.508822 109.169419
3643    1 2 0.0 43.638900 -2.896736 111.113501
3644    1 2 0.0 39.174197 -4.133306 111.829982
3645    1 2 0.0 38.466730 -6.153587 112.085258
3646    1 2 0.0 37.659967 -2.382706 115.006975
3647    1 2 0.0 41.383095 -5.706831 111.564465
3648    1 2 0.0 44.184475 -5.478262 109.681548
3649    1 1 0.0 32.598302 1.220231 123.564070
3650    1 1 0.0 36.724066 -3.705077 118.075709
3651    1 1 0.0 32.296781 0.638637 120.311635
3652    1 1 0.0 33.323505 -2.541986 118.212392
3653    1 2 0.0 34.364723 0.776377 123.058153
3654    1 2 0.0 33.614801 -3.474005 116.267999
3655    1 2 0.0 37.704617 -0.677654 118.212081
3656    1 2 0.0 33.078330 -0.922913 118.928562
3657    1 2 0.0 31.952071 -2.743239 119.183838
3658    1 2 0.0 31.976983 1.112898 122.105555
3659    1 2 0.0 34.896184 -2.935528 118.663045
3660    1 2 0.0 37.680989 -3.316095 116.780128
3661    1 1 0.0 27.810792 5.722070 130.662650
3662    1 1 0.0 30.778074 0.023313 125.174289
3663    1 1 0.0 27.391011 5.219129 127.410215
3664    1 1 0.0 27.708105 1.891972 125.310972
3665    1 2 0.0 29.440039 4.907942 130.156733
3666    1 2 0.0 27.791682 0.919075 123.366579
3667    1 2 0.0 32.388063 2.768256 125.310661
3668    1 2 0.0 27.817641 3.525835 126.027142
3669    1 2 0.0 26.325527 1.991025 126.282418
3670    1 2 0.0 27.180942 5.751168 129.204135
3671    1 2 0.0 29.159007 1.168728 125.761625
3672    1 2 0.0 31.796344 0.196914 123.878708
3673    1 1 0.0 24.106049 11.149931 137.761230
3674    1 1 0.0 25.775378 4.945584 132.272869
3675    1 1 0.0 23.587737 10.749283 134.508795
3676    1 1 0.0 23.180298 7.431978 132.409552
3677    1 2 0.0 25.521542 10.003795 137.255313
3678    1 2 0.0 23.052229 6.463932 130.465159
3679    1 2 0.0 27.939130 7.279026 132.409241
3680    1 2 0.0 23.639396 9.003835 133.125722
3681    1 2 0.0 21.851561 7.826681 133.380998
3682    1 2 0.0 23.497273 11.314093 136.302715
3683    1 2 0.0 24.441225 6.413028 132.860205
3684    1 2 0.0 26.807132 4.895644 130.977288
3685    1 1 0.0 21.658206 17.248690 144.859810
3686    1 1 0.0 21.951119 10.830374 139.371449
3687    1 1 0.0 21.065726 16.969167 141.607375
3688    1 1 0.0 19.952904 13.817635 139.508132
3689    1 2 0.0 22.793413 15.824418 144.353893
3690    1 2 0.0 19.619208 12.899942 137.563739
3691    1 2 0.0 24.566932 12.642637 139.507821
3692    1 2 0.0 20.739985 15.253606 140.224302
3693    1 2 0.0 18.740461 14.489438 140.479578
3694    1 2 0.0 21.099117 17.540200 143.401295
3695    1 2 0.0 20.964589 12.550872 139.958785
3696    1 2 0.0 22.947862 10.559240 138.075868
3697    1 1 0.0 20.582318 23.731689 151.958390
3698    1 1 0.0 19.485047 17.401082 146.470029
3699    1 1 0.0 19.943518 23.586428 148.705955
3700    1 1 0.0 18.177619 20.748801 146.606712
3701    1 2 0.0 21.383881 22.096224 151.452473
3702    1 2 0.0 17.653980 19.924595 144.662319
3703    1 2 0.0 22.429971 18.606984 146.606401
3704    1 2 0.0 19.255688 21.981389 147.322882
3705    1 2 0.0 17.138460 21.666125 147.578158
3706    1 2 0.0 20.099196 24.136844 150.499875
3707    1 2 0.0 18.892511 19.293767 147.057365
3708    1 2 0.0 20.399930 16.921498 145.174448
3709    1 1 0.0 20.928954 30.294207 159.056970
3710    1 1 0.0 18.493075 24.348866 153.568609
3711    1 1 0.0 20.273860 30.290036 155.804535
3712    1 1 0.0 17.937886 27.899691 153.705292
3713    1 2 0.0 21.359199 28.524422 158.551053
3714    1 2 0.0 17.248918 27.207711 151.760899
3715    1 2 0.0 21.628689 24.891727 153.704981
3716    1 2 0.0 19.256272 28.870962 154.421462
3717    1 2 0.0 17.120854 29.019420 154.676738
3718    1 2 0.0 20.544507 30.793965 157.598455
3719    1 2 0.0 18.322383 26.324776 154.155945
3720    1 2 0.0 19.283095 23.683374 152.273028
3721    1 1 0.0 22.681823 36.627788 166.155550
3722    1 1 0.0 19.021829 31.347161 160.667189
3723    1 1 0.0 22.041226 36.764904 162.903115
3724    1 1 0.0 19.244975 34.934193 160.803872
3725    1 2 0.0 22.720526 34.806868 165.649633
3726    1 2 0.0 18.423060 34.406965 158.859479
3727    1 2 0.0 22.200751 31.201464 160.803561
3728    1 2 0.0 20.741708 35.598495 161.520042
3729    1 2 0.0 18.688472 36.203697 161.775318
3730    1 2 0.0 22.414121 37.198659 164.697035
3731    1 2 0.0 19.281003 33.313422 161.254525
3732    1 2 0.0 19.649852 30.527041 159.371608
3733    1 1 0.0 25.758535 42.434736 173.254130
3734    1 1 0.0 21.046454 38.067027 167.765769
3735    1 1 0.0 25.162544 42.706694 170.001695
3736    1 1 0.0 22.037447 41.521666 167.902452
3737    1 2 0.0 25.403876 40.648269 172.748213
3738    1 2 0.0 21.121218 41.183970 165.958059
3739    1 2 0.0 24.119266 37.239622 167.902141
3740    1 2 0.0 23.642178 41.847774 168.618622
3741    1 2 0.0 21.767631 42.881274 168.873898
3742    1 2 0.0 25.620160 43.049887 171.795615
3743    1 2 0.0 21.723314 39.931220 168.353105
3744    1 2 0.0 21.482963 37.130827 166.470188
3745    1 1 0.0 30.014474 47.442109 180.352710
3746    1 1 0.0 24.471789 44.192612 174.864349
3747    1 1 0.0 29.491104 47.836125 177.100275
3748    1 1 0.0 26.184049 47.352479 175.001032
3749    1 2 0.0 29.283124 45.774063 179.846793
3750    1 2 0.0 25.216571 47.220190 173.056639
3751    1 2 0.0 27.294060 42.722388 175.000721
3752    1 2 0.0 27.821350 47.325066 175.717202
3753    1 2 0.0 26.213602 48.738287 175.972478
3754    1 2 0.0 30.011931 48.072626 178.894195
3755    1 2 0.0 25.534520 45.867115 175.451685
3756    1 2 0.0 24.696267 43.184336 173.568768
3757    1 1 0.0 35.249601 51.414545 187.451290
3758    1 1 0.0 29.136833 49.435996 181.962929
3759    1 1 0.0 34.823450 51.912100 184.198855
3760    1 1 0.0 31.489879 52.152570 182.099612
3761    1 2 0.0 34.175936 49.943324 186.945373
3762    1 2 0.0 30.516626 52.231903 180.155219
3763    1 2 0.0 31.575909 47.392058 182.099301
3764    1 2 0.0 33.082793 51.772923 182.815782
3765    1 2 0.0 31.817412 53.499439 183.071058
3766    1 2 0.0 35.383009 52.030792 185.992775
3767    1 2 0.0 30.535483 50.842102 182.550265
3768    1 2 0.0 29.138728 48.403036 180.667348
3769    1 1 0.0 41.217849 54.165329 194.549870
3770    1 1 0.0 34.822316 53.550726 189.061509
3771    1 1 0.0 40.908949 54.743037 191.297435
3772    1 1 0.0 37.705548 55.696319 189.198192
3773    1 2 0.0 39.852334 52.960084 194.043953
3774    1 2 0.0 36.772266 55.983547 187.253799
3775    1 2 0.0 36.763552 51.029144 189.197881
3776    1 2 0.0 39.179203 54.982284 189.914362
3777    1 2 0.0 38.315666 56.940944 190.169638
3778    1 2 0.0 41.480938 54.738341 193.091355
3779    1 2 0.0 36.491145 54.622344 189.648845
3780    1 2 0.0 34.601538 52.541634 187.765928
3781    1 1 0.0 47.638695 55.565167 201.648450
3782    1 1 0.0 41.261004 56.343397 196.160089
3783    1 1 0.0 47.461563 56.195873 198.396015
3784    1 1 0.0 44.538902 57.817160 196.296772
3785    1 2 0.0 46.045512 54.682548 201.142533
3786    1 2 0.0 43.689458 58.298782 194.352379
3787    1 2 0.0 42.613158 53.462693 196.296461
3788    1 2 0.0 45.824033 56.802298 197.012942
3789    1 2 0.0 45.402927 58.901040 197.268218
3790    1 2 0.0 48.019098 56.068010 200.189935
3791    1 2 0.0 43.121572 57.030158 196.747425
3792    1 2 0.0 40.827932 55.405602 194.864508
3793    1 1 0.0 54.210340 55.548261 3.425154
3794    1 1 0.0 48.150261 57.682746 203.258669
3795    1 1 0.0 54.173303 56.202321 0.172719
3796    1 1 0.0 51.668754 58.415409 203.395352
3797    1 2 0.0 52.464373 55.029754 2.919237
3798    1 2 0.0 50.943075 59.068787 201.450959
3799    1 2 0.0 48.849777 54.578321 203.395041
3800    1 2 0.0 52.704956 57.147421 204.111522
3801    1 2 0.0 52.746076 59.287598 204.366798
3802    1 2 0.0 54.690178 55.957301 1.966639
3803    1 2 0.0 50.115116 57.952371 203.846005
3804    1 2 0.0 47.525249 56.860328 201.963088
3805    1 1 0.0 60.623898 54.115408 10.523734
3806    1 1 0.0 55.166272 57.505820 5.035373
3807    1 1 0.0 60.728698 54.762078 7.271299
3808    1 1 0.0 58.759982 57.462945 5.172056
3809    1 2 0.0 58.807214 53.985384 10.017817
3810    1 2 0.0 58.192176 58.257370 3.227663
3811    1 2 0.0 55.180271 54.323591 5.171745
3812    1 2 0.0 59.498550 56.001431 5.888226
3813    1 2 0.0 59.999962 58.082448 6.143502
3814    1 2 0.0 61.180617 54.411418 9.065219
3815    1 2 0.0 57.143061 57.345635 5.622709
3816    1 2 0.0 54.378698 56.837435 3.739792
3817    1 1 0.0 66.577915 51.333954 17.622314
3818    1 1 0.0 61.979265 55.820935 12.133953
3819    1 1 0.0 66.819624 51.942840 14.369879
3820    1 1 0.0 65.479277 55.004538 12.270636
3821    1 2 0.0 64.775902 51.598524 17.116397
3822    1 2 0.0 65.096033 55.902668 10.326243
3823    1 2 0.0 61.307089 52.710476 12.270325
3824    1 2 0.0 65.885497 53.418192 12.986806
3825    1 2 0.0 66.823634 55.342236 13.242082
3826    1 2 0.0 67.185347 51.503021 16.163799
3827    1 2 0.0 63.875073 55.238470 12.721289
3828    1 2 0.0 61.066147 55.337999 10.838372
3829    1 1 0.0 67.471497 43.821084 26.956381
3830    1 1 0.0 66.006658 48.466089 20.156862
3831    1 1 0.0 67.371610 44.398096 24.328663
3832    1 1 0.0 68.596423 47.247263 20.693303
3833    1 2 0.0 65.873181 44.247961 26.473987
3834    1 2 0.0 68.636623 48.167609 18.685608
3835    1 2 0.0 62.663799 45.577756 22.200214
3836    1 2 0.0 67.661055 45.766832 22.260283
3837    1 2 0.0 70.363087 47.352121 21.180220
3838    1 2 0.0 67.840871 43.942519 25.804446
3839    1 2 0.0 67.362890 47.656781 20.940168
3840    1 2 0.0 64.638474 48.122994 19.351331
3841    1 1 0.0 71.045914 39.805741 34.054961
3842    1 1 0.0 70.616610 44.657289 27.255442
3843    1 1 0.0 71.072734 40.390720 31.427243
3844    1 1 0.0 72.882826 42.908951 27.791883
3845    1 2 0.0 69.577163 40.567061 33.572567
3846    1 2 0.0 73.120438 43.799004 25.784188
3847    1 2 0.0 66.729809 42.557302 29.298794
3848    1 2 0.0 71.650373 41.664906 29.358863
3849    1 2 0.0 74.630570 42.630588 28.278800
3850    1 2 0.0 71.432779 39.844713 32.903026
3851    1 2 0.0 71.766543 43.574702 28.038748
3852    1 2 0.0 69.206635 44.617133 26.449911
3853    1 1 0.0 73.670926 35.114392 41.153541
3854    1 1 0.0 74.297335 39.944447 34.354022
3855    1 1 0.0 73.823193 35.679843 38.525823
3856    1 1 0.0 76.133483 37.748775 34.890463
3857    1 2 0.0 72.400775 36.174371 40.671147
3858    1 2 0.0 76.557338 38.566699 32.882768
3859    1 2 0.0 70.049282 38.731511 36.397374
3860    1 2 0.0 74.661873 36.799590 36.457443
3861    1 2 0.0 77.780159 37.100273 35.377380
3862    1 2 0.0 74.057099 35.069070 40.001606
3863    1 2 0.0 75.186920 38.639464 35.137328
3864    1 2 0.0 72.911842 40.209119 33.548491
3865    1 1 0.0 75.223149 29.967545 48.252121
3866    1 1 0.0 76.875828 34.549081 41.452602
3867    1 1 0.0 75.493705 30.486890 45.624403
3868    1 1 0.0 78.195605 32.009276 41.989043
3869    1 2 0.0 74.211299 31.276360 47.769727
3870    1 2 0.0 78.785781 32.716627 39.981348
3871    1 2 0.0 72.466194 34.280206 43.495954
3872    1 2 0.0 76.554008 31.399565 43.556023
3873    1 2 0.0 79.663814 31.021116 42.475960
3874    1 2 0.0 75.590478 29.840058 47.100186
3875    1 2 0.0 77.463252 33.083040 42.235908
3876    1 2 0.0 75.579939 35.106138 40.647071
3877    1 1 0.0 75.629625 24.607114 55.350701
3878    1 1 0.0 78.230894 28.724786 48.551182
3879    1 1 0.0 76.005754 25.055943 52.722983
3880    1 1 0.0 78.972265 25.960227 49.087623
3881    1 2 0.0 74.923636 26.103248 54.868307
3882    1 2 0.0 79.701022 26.523757 47.079928
3883    1 2 0.0 73.866943 29.412612 50.594534
3884    1 2 0.0 77.237841 25.718648 50.654603
3885    1 2 0.0 80.192997 24.678857 49.574540
3886    1 2 0.0 75.960845 24.403456 54.198766
3887    1 2 0.0 78.488545 27.166596 49.334488
3888    1 2 0.0 77.085519 29.548047 47.745651
3889    1 1 0.0 74.871247 19.285056 62.449281
3890    1 1 0.0 78.298839 22.745322 55.649762
3891    1 1 0.0 75.335270 19.642272 59.821563
3892    1 1 0.0 78.426959 19.885950 56.186203
3893    1 2 0.0 74.504303 20.898187 61.966887
3894    1 2 0.0 79.260044 20.279172 54.178508
3895    1 2 0.0 74.185690 24.357517 57.693114
3896    1 2 0.0 76.681230 20.023859 57.753183
3897    1 2 0.0 79.342837 18.371597 56.673120
3898    1 2 0.0 75.150790 19.014798 61.297346
3899    1 2 0.0 78.214608 21.168221 56.433068
3900    1 2 0.0 77.357815 23.796090 54.844231
3901    1 1 0.0 72.983663 14.251522 69.547861
3902    1 1 0.0 77.076471 16.891739 62.748342
3903    1 1 0.0 73.513770 14.500335 66.920143
3904    1 1 0.0 76.585318 14.071954 63.284783
3905    1 2 0.0 72.973010 15.905827 69.065467
3906    1 2 0.0 77.483572 14.276386 61.277088
3907    1 2 0.0 73.407453 19.352527 64.791694
3908    1 2 0.0 74.910339 14.582867 64.851763
3909    1 2 0.0 77.153292 12.395797 63.771700
3910    1 2 0.0 73.198390 13.927367 68.395926
3911    1 2 0.0 76.654317 15.369856 63.531648
3912    1 2 0.0 76.384028 18.120626 61.942811
3913    1 1 0.0 70.055594 9.743103 76.646441
3914    1 1 0.0 74.621245 11.439173 69.846922
3915    1 1 0.0 70.626867 9.871817 74.018723
3916    1 1 0.0 73.533903 8.791512 70.383363
3917    1 2 0.0 70.401733 11.360825 76.164047
3918    1 2 0.0 74.455107 8.797544 68.375668
3919    1 2 0.0 71.568812 14.632890 71.890274
3920    1 2 0.0 72.008402 9.651416 71.950343
3921    1 2 0.0 73.727278 7.032336 70.870280
3922    1 2 0.0 70.195411 9.380287 75.494506
3923    1 2 0.0 73.881010 10.044041 70.630228
3924    1 2 0.0 74.209929 12.788418 69.041391
3925    1 1 0.0 66.224667 5.971706 83.745021
3926    1 1 0.0 71.048562 6.643910 76.945502
3927    1 1 0.0 66.810255 5.974272 81.117303
3928    1 1 0.0 69.416141 4.292821 77.481943
3929    1 2 0.0 66.911329 7.476808 83.262627
3930    1 2 0.0 70.316995 4.100170 75.474248
3931    1 2 0.0 68.756188 10.420442 78.988854
3932    1 2 0.0 68.111821 5.461298 79.048923
3933    1 2 0.0 69.225826 2.533311 77.968860
3934    1 2 0.0 66.283002 5.587283 82.593086
3935    1 2 0.0 70.025040 5.441104 77.728808
3936    1 2 0.0 70.937707 8.050094 76.139971
3937    1 1 0.0 61.670946 3.114598 90.843601
3938    1 1 0.0 66.526349 2.731341 84.044082
3939    1 1 0.0 62.243326 2.990896 88.215883
3940    1 1 0.0 64.425576 0.787331 84.580523
3941    1 2 0.0 62.665856 4.436336 90.361207
3942    1 2 0.0 65.263739 0.405052 82.572828
3943    1 2 0.0 65.101781 6.913180 86.087434
3944    1 2 0.0 63.403744 2.209459 86.147503
3945    1 2 0.0 63.860518 -0.889811 85.067440
3946    1 2 0.0 61.645059 2.726637 89.691666
3947    1 2 0.0 65.267647 1.777395 84.827388
3948    1 2 0.0 66.721165 4.128369 83.238551
3949    1 1 0.0 56.608470 1.306071 97.942181
3950    1 1 0.0 61.267163 -0.114634 91.142662
3951    1 1 0.0 57.140737 1.061915 95.314463
3952    1 1 0.0 58.796781 -1.560191 91.679103
3953    1 2 0.0 57.864864 2.382320 97.459787
3954    1 2 0.0 59.532855 -2.114129 89.671408
3955    1 2 0.0 60.777360 4.275954 93.186014
3956    1 2 0.0 58.105466 0.048744 93.246083
3957    1 2 0.0 57.883539 -3.076134 92.166020
3958    1 2 0.0 56.499576 0.932807 96.790246
3959    1 2 0.0 59.832444 -0.774881 91.925968
3960    1 2 0.0 61.758493 1.207575 90.337131
3961    1 1 0.0 51.275188 0.631131 105.040761
3962    1 1 0.0 55.518200 -1.760244 98.241242
3963    1 1 0.0 51.742325 0.277997 102.413043
3964    1 1 0.0 52.794323 -2.639403 98.777683
3965    1 2 0.0 52.734012 1.411304 104.558367
3966    1 2 0.0 53.393712 -3.338964 96.769988
3967    1 2 0.0 55.986184 2.632723 100.284594
3968    1 2 0.0 52.466019 -0.919285 100.344663
3969    1 2 0.0 51.575822 -3.922894 99.264600
3970    1 2 0.0 51.088406 0.290109 103.888826
3971    1 2 0.0 53.974900 -2.095758 99.024548
3972    1 2 0.0 56.282950 -0.575003 97.435711
3973    1 1 0.0 45.921780 1.121502 112.139341
3974    1 1 0.0 49.549677 -2.128143 105.339822
3975    1 1 0.0 46.301830 0.675988 109.511623
3976    1 1 0.0 46.700336 -2.399579 105.876263
3977    1 2 0.0 47.514466 1.568928 111.656947
3978    1 2 0.0 47.134866 -3.211883 103.868568
3979    1 2 0.0 50.953452 2.060722 107.383174
3980    1 2 0.0 46.750474 -0.649129 107.443243
3981    1 2 0.0 45.233848 -3.390290 106.363180
3982    1 2 0.0 45.665890 0.828750 110.987406
3983    1 2 0.0 47.970336 -2.123154 106.123128
3984    1 2 0.0 50.551903 -1.135578 104.534291
3985    1 1 0.0 40.799872 2.754135 119.237921
3986    1 1 0.0 43.642132 -1.201036 112.438402
3987    1 1 0.0 41.074971 2.237181 116.610203
3988    1 1 0.0 40.801254 -0.851993 112.974843
3989    1 2 0.0 42.451558 2.847784 118.755527
3990    1 2 0.0 41.050501 -1.738858 110.967148
3991    1 2 0.0 45.915716 2.586837 114.481754
3992    1 2 0.0 41.227477 0.846513 114.541823
3993    1 2 0.0 39.155709 -1.503358 113.461760
3994    1 2 0.0 40.486900 2.523414 118.085986
3995    1 2 0.0 42.100983 -0.855779 113.221708
3996    1 2 0.0 44.834726 -0.447802 111.632871
3997    1 1 0.0 36.150206 5.452292 126.336501
3998    1 1 0.0 38.073237 0.977498 119.536982
3999    1 1 0.0 36.307424 4.888197 123.708783
4000    1 1 0.0 35.374350 1.930615 120.073423
4001    1 2 0.0 37.783260 5.187763 125.854107
4002    1 2 0.0 35.426599 1.010874 118.065728
4003    1 2 0.0 41.109765 4.186340 121.580334
4004    1 2 0.0 36.156624 3.497342 121.640403
4005    1 2 0.0 33.627093 1.649212 120.560340
4006    1 2 0.0 35.794864 5.294445 125.184566
4007    1 2 0.0 36.642718 1.646795 120.320288
4008    1 2 0.0 39.400142 1.455998 118.731451
4009    1 1 0.0 32.191332 9.089151 133.435081
4010    1 1 0.0 33.104744 4.305063 126.635562
4011    1 1 0.0 32.223279 8.504429 130.807363
4012    1 1 0.0 30.674704 5.817454 127.172003
4013    1 2 0.0 33.728994 8.478877 132.952687
4014    1 2 0.0 30.527499 4.908068 125.164308
4015    1 2 0.0 36.761491 6.784049 128.678914
4016    1 2 0.0 31.776261 7.178763 128.738983
4017    1 2 0.0 28.907861 5.919240 127.658920
4018    1 2 0.0 31.810321 9.011600 132.283146
4019    1 2 0.0 31.852094 5.266941 127.418868
4020    1 2 0.0 34.503593 4.486338 125.830031
4021    1 1 0.0 29.109326 13.493771 140.533661
4022    1 1 0.0 28.970186 8.625254 133.734142
4023    1 1 0.0 29.014501 12.915906 137.905943
4024    1 1 0.0 26.923212 10.625833 134.270583
4025    1 2 0.0 30.479322 12.566437 140.051267
4026    1 2 0.0 26.583472 9.769545 132.262888
4027    1 2 0.0 33.075275 10.257864 135.777494
4028    1 2 0.0 28.292275 11.717738 135.837563
4029    1 2 0.0 25.219830 11.106024 134.757500
4030    1 2 0.0 28.720555 13.500159 139.381726
4031    1 2 0.0 27.954283 9.834502 134.517448
4032    1 2 0.0 30.375230 8.500783 132.928611
4033    1 1 0.0 27.049052 18.459122 147.632241
4034    1 1 0.0 25.863901 13.735009 140.832722
4035    1 1 0.0 26.831911 17.915274 145.004523
4036    1 1 0.0 24.296206 16.129744 141.369163
4037    1 2 0.0 28.186988 17.258315 147.149847
4038    1 2 0.0 23.779900 15.366801 139.361468
4039    1 2 0.0 30.224381 14.444506 142.876074
4040    1 2 0.0 25.868426 16.900921 142.936143
4041    1 2 0.0 22.736348 16.965768 141.856080
4042    1 2 0.0 26.670794 18.549149 146.480306
4043    1 2 0.0 25.132495 15.134790 141.616028
4044    1 2 0.0 27.209098 13.310644 140.027191
4045    1 1 0.0 26.107348 23.751818 154.730821
4046    1 1 0.0 23.931891 19.394157 147.931302
4047    1 1 0.0 25.778098 23.267550 152.103103
4048    1 1 0.0 22.917162 22.070487 148.467743
4049    1 2 0.0 26.959739 22.333979 154.248427
4050    1 2 0.0 22.248557 21.436751 146.460048
4051    1 2 0.0 28.342807 19.147193 149.974654
4052    1 2 0.0 24.618639 22.484690 150.034723
4053    1 2 0.0 21.574145 23.223051 148.954660
4054    1 2 0.0 25.757383 23.921253 153.578886
4055    1 2 0.0 23.519360 20.918676 148.714608
4056    1 2 0.0 25.154013 18.689842 147.125771
4057    1 1 0.0 26.328477 29.123088 161.829401
4058    1 1 0.0 23.264967 25.336700 155.029882
4059    1 1 0.0 25.902594 28.721162 159.201683
4060    1 1 0.0 22.850898 28.168831 155.566323
4061    1 2 0.0 26.855258 27.554859 161.347007
4062    1 2 0.0 22.061422 27.694089 153.558628
4063    1 2 0.0 27.518994 24.144883 157.073234
4064    1 2 0.0 24.601659 28.206591 157.133303
4065    1 2 0.0 21.787849 29.583760 156.053240
4066    1 2 0.0 26.023254 29.363966 160.677466
4067    1 2 0.0 23.190701 26.914302 155.813188
4068    1 2 0.0 24.306571 24.385542 154.224351
4069    1 1 0.0 27.702046 34.320467 168.927981
4070    1 1 0.0 23.894476 31.283324 162.128462
4071    1 1 0.0 27.199547 34.019775 166.300263
4072    1 1 0.0 24.100530 34.138137 162.664903
4073    1 2 0.0 27.878456 32.675560 168.445587
4074    1 2 0.0 23.227289 33.844703 160.657208
4075    1 2 0.0 27.791662 29.202672 164.171814
4076    1 2 0.0 25.818283 33.797680 164.231883
4077    1 2 0.0 23.367415 35.748925 163.151820
4078    1 2 0.0 27.455911 34.621467 167.776046
4079    1 2 0.0 24.161966 32.839855 162.911768
4080    1 2 0.0 24.706604 30.130028 161.322931
4081    1 1 0.0 30.163492 39.099663 176.026561
4082    1 1 0.0 25.790830 36.954519 169.227042
4083    1 1 0.0 29.607997 38.914338 173.398843
4084    1 1 0.0 26.607321 39.697831 169.763483
4085    1 2 0.0 29.981240 37.455393 175.544167
4086    1 2 0.0 25.691360 39.599497 167.755788
4087    1 2 0.0 29.147996 34.082829 171.270394
4088    1 2 0.0 28.211328 38.995158 171.330463
4089    1 2 0.0 26.238598 41.428767 170.250400
4090    1 2 0.0 29.988014 39.446638 174.874626
4091    1 2 0.0 26.387503 38.416819 170.010348
4092    1 2 0.0 26.335309 35.653295 168.421511
4093    1 1 0.0 33.597122 43.236042 183.125141
4094    1 1 0.0 28.864893 42.083724 176.325622
4095    1 1 0.0 33.014739 43.174794 180.497423
4096    1 1 0.0 30.253444 44.586591 176.862063
4097    1 2 0.0 33.064773 41.669694 182.642747
4098    1 2 0.0 29.337817 44.687980 174.854368
4099    1 2 0.0 31.524245 38.555974 178.368974
4100    1 2 0.0 31.668312 43.554730 178.429043
4101    1 2 0.0 30.266445 46.356316 177.348980
4102    1 2 0.0 33.500549 43.612681 181.973206
4103    1 2 0.0 29.762704 43.383061 177.108928
4104    1 2 0.0 29.116131 40.695732 175.520091
4105    1 1 0.0 37.841544 46.535181 190.223721
4106    1 1 0.0 32.972177 46.429852 183.424202
4107    1 1 0.0 37.259648 46.600890 187.596003
4108    1 1 0.0 34.867523 48.574632 183.960643
4109    1 2 0.0 36.984121 45.120378 189.741327
4110    1 2 0.0 33.995266 48.870977 181.952948
4111    1 2 0.0 34.808716 42.411855 185.467554
4112    1 2 0.0 36.026749 47.262084 185.527623
4113    1 2 0.0 35.261636 50.299964 184.447560
4114    1 2 0.0 37.828416 46.923782 189.071786
4115    1 2 0.0 34.128927 47.505153 184.207508
4116    1 2 0.0 32.918366 45.020332 182.618671
4117    1 1 0.0 42.697259 48.842011 197.322301
4118    1 1 0.0 37.919629 49.788622 190.522782
4119    1 1 0.0 42.143200 49.031589 194.694583
4120    1 1 0.0 40.232682 51.474505 191.059223
4121    1 2 0.0 41.555064 47.645254 196.839907
4122    1 2 0.0 39.444794 51.951878 189.051528
4123    1 2 0.0 38.847033 45.469236 192.566134
4124    1 2 0.0 41.081779 49.942963 192.626203
4125    1 2 0.0 40.989383 53.074349 191.546140
4126    1 2 0.0 42.768192 49.224310 196.170366
4127    1 2 0.0 39.280945 50.589345 191.306088
4128    1 2 0.0 37.563297 48.423826 189.717251
4129    1 1 0.0 47.936035 50.048106 204.420881
4130    1 1 0.0 43.474702 52.002163 197.621362
4131    1 1 0.0 47.435856 50.352641 201.793163
4132    1 1 0.0 46.096744 53.149908 198.157803
4133    1 2 0.0 46.562753 49.125645 203.938487
4134    1 2 0.0 45.430257 53.785870 196.150108
4135    1 2 0.0 43.449381 47.584411 199.664714
4136    1 2 0.0 46.595802 51.471358 199.724783
4137    1 2 0.0 47.180466 54.549066 198.644720
4138    1 2 0.0 48.087695 50.406133 203.268946
4139    1 2 0.0 44.976601 52.490672 198.404668
4140    1 2 0.0 42.832599 50.746239 196.815831
4141    1 1 0.0 53.311634 50.096776 6.197585
4142    1 1 0.0 49.376295 52.966433 204.719942
4143    1 1 0.0 52.888845 50.501954 3.569867
4144    1 1 0.0 52.184081 53.522091 205.256383
4145    1 2 0.0 51.771814 49.491968 5.715191
4146    1 2 0.0 51.670323 54.286752 203.248688
4147    1 2 0.0 48.399438 48.657962 1.441418
4148    1 2 0.0 52.309644 51.775431 1.501487
4149    1 2 0.0 53.543886 54.654799 0.421424
4150    1 2 0.0 53.536894 50.413701 5.045650
4151    1 2 0.0 50.948183 53.119766 0.181372
4152    1 2 0.0 48.478601 51.878413 203.914411
4153    1 1 0.0 58.571389 48.985732 13.296165
4154    1 1 0.0 55.347015 52.636107 6.496646
4155    1 1 0.0 58.245861 49.472510 10.668447
4156    1 1 0.0 58.208572 52.573562 7.033087
4157    1 2 0.0 56.937406 48.727006 12.813771
4158    1 2 0.0 57.871690 53.430979 5.025392
4159    1 2 0.0 53.464538 48.639427 8.539998
4160    1 2 0.0 57.954737 50.840889 8.600067
4161    1 2 0.0 59.780544 53.386580 7.520004
4162    1 2 0.0 58.859659 49.246661 12.144230
4163    1 2 0.0 56.915008 52.447058 7.279952
4164    1 2 0.0 54.235924 51.767132 5.691115
4165    1 1 0.0 63.468076 46.767198 20.394745
4166    1 1 0.0 61.106221 51.026713 13.595226
4167    1 1 0.0 63.255110 47.312694 17.767027
4168    1 1 0.0 63.887048 50.348904 14.131667
4169    1 2 0.0 61.816732 46.866714 19.912351
4170    1 2 0.0 63.742877 51.258777 12.123972
4171    1 2 0.0 58.406606 47.529679 15.638578
4172    1 2 0.0 63.265746 48.711659 15.698647
4173    1 2 0.0 65.597302 50.804018 14.618584
4174    1 2 0.0 63.805808 46.959865 19.242810
4175    1 2 0.0 62.596620 50.504167 14.378532
4176    1 2 0.0 59.833958 50.417627 12.789695
4177    1 1 0.0 68.640421 57.854854 28.430571
4178    1 1 0.0 61.348179 62.803958 24.790952
4179    1 1 0.0 68.666588 57.951657 24.950269
4180    1 1 0.0 65.111422 61.419540 24.950047
4181    1 2 0.0 66.829676 58.385285 27.676860
4182    1 2 0.0 64.089328 62.088749 23.407218
4183    1 2 0.0 62.823639 59.554989 22.324941
4184    1 2 0.0 66.763628 59.635585 24.395897
4185    1 2 0.0 65.788295 61.870438 26.902836
4186    1 2 0.0 69.136037 57.702559 26.918211
4187    1 2 0.0 63.519529 61.998694 25.324330
4188    1 2 0.0 60.820997 62.196971 22.754624
4189    1 1 0.0 75.211978 53.257767 35.529151
4190    1 1 0.0 69.157763 59.662211 31.889532
4191    1 1 0.0 75.258393 53.346656 32.048849
4192    1 1 0.0 72.534190 57.499261 32.048627
4193    1 2 0.0 73.558108 54.165991 34.775440
4194    1 2 0.0 71.680347 58.373028 30.505798
4195    1 2 0.0 69.898318 56.171601 29.423521
4196    1 2 0.0 73.763082 55.401141 31.494477
4197    1 2 0.0 73.292334 57.793680 34.001416
4198    1 2 0.0 75.663123 53.002234 34.016791
4199    1 2 0.0 71.104530 58.407895 32.422910
4200    1 2 0.0 68.512150 59.183110 29.853204
4201    1 1 0.0 80.638313 47.352391 42.627731
4202    1 1 0.0 76.106690 54.911149 38.988112
4203    1 1 0.0 80.702795 47.429187 39.147429
4204    1 1 0.0 78.937599 52.071331 39.147207
4205    1 2 0.0 79.219055 48.595719 41.874020
4206    1 2 0.0 78.292140 53.108587 37.604378
4207    1 2 0.0 76.077531 51.342966 36.522101
4208    1 2 0.0 79.685416 49.757665 38.593057
4209    1 2 0.0 79.741380 52.195433 41.099996
4210    1 2 0.0 81.023782 47.005631 41.115371
4211    1 2 0.0 77.737370 53.266736 39.521490
4212    1 2 0.0 75.372993 54.582452 36.951784
4213    1 1 0.0 84.664372 40.416296 49.726311
4214    1 1 0.0 81.868340 48.774085 46.086692
4215    1 1 0.0 84.743890 40.477390 46.246009
4216    1 1 0.0 84.020671 45.390878 46.245787
4217    1 2 0.0 83.546435 41.936287 48.972600
4218    1 2 0.0 83.613935 46.542869 44.702958
4219    1 2 0.0 81.070839 45.296044 43.620681
4220    1 2 0.0 84.252263 42.970414 45.691637
4221    1 2 0.0 84.832309 45.338829 48.198576
4222    1 2 0.0 84.966047 39.994608 48.213951
4223    1 2 0.0 83.106288 46.816868 46.620070
4224    1 2 0.0 81.081044 48.611242 44.050364
4225    1 1 0.0 87.100920 32.775497 56.824891
4226    1 1 0.0 86.171901 41.539478 53.185272
4227    1 1 0.0 87.191736 32.818017 53.344589
4228    1 1 0.0 87.544487 37.771902 53.344367
4229    1 2 0.0 86.336851 34.500709 56.071180
4230    1 2 0.0 87.395591 38.984482 51.801538
4231    1 2 0.0 84.643542 38.315056 50.719261
4232    1 2 0.0 87.248970 35.358409 52.790217
4233    1 2 0.0 88.325833 37.546150 55.297156
4234    1 2 0.0 87.304621 32.298701 55.312531
4235    1 2 0.0 86.958928 39.361451 53.718650
4236    1 2 0.0 85.368011 41.550143 51.148944
4237    1 1 0.0 87.833432 24.789134 63.923471
4238    1 1 0.0 88.815092 33.547374 60.283852
4239    1 1 0.0 87.931278 24.811082 60.443169
4240    1 1 0.0 89.343419 29.572517 60.442947
4241    1 2 0.0 87.459143 26.638476 63.169760
4242    1 2 0.0 89.459362 30.788690 58.900118
4243    1 2 0.0 86.627712 30.728129 57.817841
4244    1 2 0.0 88.534681 27.279436 59.888797
4245    1 2 0.0 90.057747 29.183672 62.395736
4246    1 2 0.0 87.929585 24.279641 62.411111
4247    1 2 0.0 89.114207 31.250911 60.817230
4248    1 2 0.0 88.032393 33.731046 58.247524
4249    1 1 0.0 86.827478 16.832588 71.022051
4250    1 1 0.0 89.673677 25.173426 67.382432
4251    1 1 0.0 86.927755 16.832931 67.541749
4252    1 1 0.0 89.332911 21.178117 67.541527
4253    1 2 0.0 86.860563 18.719135 70.268340
4254    1 2 0.0 89.708243 22.340719 65.998698
4255    1 2 0.0 86.930088 22.891869 64.916421
4256    1 2 0.0 88.048966 19.113228 66.987377
4257    1 2 0.0 89.946645 20.644455 69.494316
4258    1 2 0.0 86.811564 16.314345 69.509691
4259    1 2 0.0 89.470819 22.866466 67.915810
4260    1 2 0.0 88.948958 25.521472 65.346104
4261    1 1 0.0 84.130341 9.279839 78.120631
4262    1 1 0.0 88.707298 16.811232 74.481012
4263    1 1 0.0 84.228335 9.258562 74.640329
4264    1 1 0.0 87.513457 12.983261 74.640107
4265    1 2 0.0 84.569244 11.114919 77.366920
4266    1 2 0.0 88.130537 14.037648 73.097278
4267    1 2 0.0 85.536458 15.174603 72.015001
4268    1 2 0.0 85.814654 11.243621 74.085957
4269    1 2 0.0 87.997751 12.329867 76.592896
4270    1 2 0.0 84.003106 8.777205 76.608271
4271    1 2 0.0 88.012003 14.602210 75.014390
4272    1 2 0.0 88.074624 17.307292 72.444684
4273    1 1 0.0 79.868793 2.485887 85.219211
4274    1 1 0.0 85.961380 8.853839 81.579592
4275    1 1 0.0 79.959898 2.443990 81.738909
4276    1 1 0.0 83.970577 5.373132 81.738687
4277    1 2 0.0 80.692884 4.183246 84.465500
4278    1 2 0.0 84.800399 6.269743 80.195858
4279    1 2 0.0 82.512327 7.939064 79.113581
4280    1 2 0.0 81.936764 4.040508 81.184537
4281    1 2 0.0 84.302667 4.630716 83.691476
4282    1 2 0.0 79.636219 2.022488 83.706851
4283    1 2 0.0 84.806329 6.846584 82.112970
4284    1 2 0.0 85.450487 9.474597 79.543264
4285    1 1 0.0 74.243139 -3.229933 92.317791
4286    1 1 0.0 81.564987 1.675266 88.678172
4287    1 1 0.0 74.323074 -3.290480 88.837489
4288    1 1 0.0 78.870795 -1.294574 88.837267
4289    1 2 0.0 75.413685 -1.750075 91.564080
4290    1 2 0.0 79.874357 -0.597881 87.294438
4291    1 2 0.0 77.999836 1.525343 86.212161
4292    1 2 0.0 76.597568 -2.157544 88.283117
4293    1 2 0.0 79.035073 -2.091115 90.790056
4294    1 2 0.0 73.916158 -3.632316 90.805431
4295    1 2 0.0 80.004470 -0.035874 89.211550
4296    1 2 0.0 81.199889 2.391546 86.641844
4297    1 1 0.0 67.517802 -7.598961 99.416371
4298    1 1 0.0 75.724762 -4.387073 95.776752
4299    1 1 0.0 67.582808 -7.675313 95.936069
4300    1 1 0.0 72.453817 -6.706455 95.935847
4301    1 2 0.0 68.979782 -6.406162 98.662660
4302    1 2 0.0 73.583948 -6.242427 94.393018
4303    1 2 0.0 72.211085 -3.765098 93.310741
4304    1 2 0.0 70.048023 -7.059210 95.381697
4305    1 2 0.0 72.442561 -7.519682 97.888636
4306    1 2 0.0 67.111782 -7.921415 97.904011
4307    1 2 0.0 73.832128 -5.721670 96.310130
4308    1 2 0.0 75.522620 -3.608940 93.740424
4309    1 1 0.0 60.008889 -10.415840 106.514951
4310    1 1 0.0 68.715213 -9.048231 102.875332
4311    1 1 0.0 60.055913 -10.504408 103.034649
4312    1 1 0.0 65.021258 -10.608138 103.034427
4313    1 2 0.0 61.693588 -9.566165 105.761240
4314    1 2 0.0 66.224838 -10.398585 101.491598
4315    1 2 0.0 65.418163 -7.683593 100.409321
4316    1 2 0.0 62.595976 -10.434097 102.480277
4317    1 2 0.0 64.834996 -11.399828 104.987216
4318    1 2 0.0 59.542915 -10.643209 105.002591
4319    1 2 0.0 66.579421 -9.943556 103.408710
4320    1 2 0.0 68.685527 -8.244819 100.839004
4321    1 1 0.0 52.069343 -11.548170 113.613531
4322    1 1 0.0 60.865808 -12.089122 109.973912
4323    1 1 0.0 52.096172 -11.644791 110.133229
4324    1 1 0.0 56.922469 -12.816234 110.133007
4325    1 2 0.0 53.897574 -11.081556 112.859820
4326    1 2 0.0 58.142927 -12.871005 108.590178
4327    1 2 0.0 57.940355 -10.045961 107.507901
4328    1 2 0.0 54.591695 -12.123577 109.578857
4329    1 2 0.0 56.569957 -13.549173 112.085796
4330    1 2 0.0 51.565316 -11.669767 112.101171
4331    1 2 0.0 58.587246 -12.503091 110.507290
4332    1 2 0.0 61.009974 -11.298192 107.937584
4333    1 1 0.0 44.072343 -10.942728 120.712111
4334    1 1 0.0 52.545490 -13.366813 117.072492
4335    1 1 0.0 44.077718 -11.042861 117.231809
4336    1 1 0.0 48.538115 -13.226954 117.231587
4337    1 2 0.0 45.958174 -10.881107 119.958400
4338    1 2 0.0 49.718087 -13.543476 115.688758
4339    1 2 0.0 50.129140 -10.741165 114.606481
4340    1 2 0.0 46.411402 -12.048238 116.677437
4341    1 2 0.0 48.035922 -13.866694 119.184376
4342    1 2 0.0 43.553954 -10.952838 119.199751
4343    1 2 0.0 50.231258 -13.279970 117.605870
4344    1 2 0.0 52.856733 -12.625543 115.036164
4345    1 1 0.0 36.393771 -8.627971 127.810691
4346    1 1 0.0 44.145339 -12.821252 124.171072
4347    1 1 0.0 36.377438 -8.726909 124.330389
4348    1 1 0.0 40.262286 -11.820994 124.330167
4349    1 2 0.0 38.248563 -8.974240 127.056980
4350    1 2 0.0 41.346308 -12.384390 122.787338
4351    1 2 0.0 42.351666 -9.736529 121.705061
4352    1 2 0.0 38.439595 -10.211623 123.776017
4353    1 2 0.0 39.634016 -12.337465 126.282956
4354    1 2 0.0 35.885386 -8.526118 126.298331
4355    1 2 0.0 41.904212 -12.237677 124.704450
4356    1 2 0.0 44.609028 -12.164482 122.134744
4357    1 1 0.0 29.394541 -4.712699 134.909271
4358    1 1 0.0 36.060185 -10.478079 131.269652
4359    1 1 0.0 29.357268 -4.805792 131.428969
4360    1 1 0.0 32.483968 -8.664439 131.428747
4361    1 2 0.0 31.131113 -5.450582 134.155560
4362    1 2 0.0 33.421089 -9.448226 129.885918
4363    1 2 0.0 34.973496 -7.079272 128.803641
4364    1 2 0.0 31.050970 -6.700057 130.874597
4365    1 2 0.0 31.759152 -9.033364 133.381536
4366    1 2 0.0 28.920056 -4.503671 133.396911
4367    1 2 0.0 33.997501 -9.425203 131.803030
4368    1 2 0.0 36.654526 -9.936681 129.233324
4369    1 1 0.0 23.403637 0.619059 142.007851
4370    1 1 0.0 28.670053 -6.447432 138.368232
4371    1 1 0.0 23.347177 0.536187 138.527549
4372    1 1 0.0 25.568765 -3.905655 138.527327
4373    1 2 0.0 24.940366 -0.475756 141.254140
4374    1 2 0.0 26.314937 -4.872994 136.984498
4375    1 2 0.0 28.341426 -2.894294 135.902221
4376    1 2 0.0 24.592815 -1.678594 137.973177
4377    1 2 0.0 24.781470 -4.109695 140.480116
4378    1 2 0.0 22.985353 0.925437 140.495491
4379    1 2 0.0 26.882764 -4.974742 138.901610
4380    1 2 0.0 29.367110 -6.046852 136.331904
4381    1 1 0.0 18.702648 7.116695 149.106431
4382    1 1 0.0 22.322299 -0.918761 145.466812
4383    1 1 0.0 18.629654 7.047939 145.626129
4384    1 1 0.0 19.841709 2.231682 145.625907
4385    1 2 0.0 19.967303 5.716408 148.352720
4386    1 2 0.0 20.361861 1.126259 144.083078
4387    1 2 0.0 22.767181 2.621699 143.000801
4388    1 2 0.0 19.368680 4.616744 145.071757
4389    1 2 0.0 19.028941 2.202118 147.578696
4390    1 2 0.0 18.360226 7.506023 147.594071
4391    1 2 0.0 20.894414 0.904521 146.000190
4392    1 2 0.0 23.089309 -0.677828 143.430484
4393    1 1 0.0 15.512534 14.474802 156.205011
4394    1 1 0.0 17.315286 5.848070 152.565392
4395    1 1 0.0 15.426436 14.423394 152.724709
4396    1 1 0.0 15.571989 9.459099 152.724487
4397    1 2 0.0 16.445673 12.834861 155.451300
4398    1 2 0.0 15.841671 8.267550 151.181658
4399    1 2 0.0 18.512766 9.209442 150.099381
4400    1 2 0.0 15.624114 11.890058 152.170337
4401    1 2 0.0 14.771951 9.605401 154.677276
4402    1 2 0.0 15.262069 14.928780 154.692651
4403    1 2 0.0 16.313919 7.936246 153.098770
4404    1 2 0.0 18.116197 5.918032 150.529064
4405    1 1 0.0 13.983239 22.347529 163.303591
4406    1 1 0.0 13.884358 13.535001 159.663972
4407    1 1 0.0 13.888085 22.315885 159.823289
4408    1 1 0.0 12.960293 17.436888 159.823067
4409    1 2 0.0 14.541002 20.545015 162.549880
4410    1 2 0.0 12.966831 16.215219 158.280238
4411    1 2 0.0 15.778151 16.559291 157.197961
4412    1 2 0.0 13.535123 19.799482 159.268917
4413    1 2 0.0 12.210589 17.752178 161.775856
4414    1 2 0.0 13.836503 22.844819 161.791231
4415    1 2 0.0 13.356576 15.789920 160.197350
4416    1 2 0.0 14.681525 13.430704 157.627644
4417    1 1 0.0 14.186644 30.364835 170.402171
4418    1 1 0.0 12.190778 21.780725 166.762552
4419    1 1 0.0 14.086907 30.354443 166.921869
4420    1 1 0.0 12.129379 25.790070 166.921647
4421    1 2 0.0 14.342814 28.484472 169.648460
4422    1 2 0.0 11.872464 24.595703 165.378818
4423    1 2 0.0 14.691871 24.325782 164.296541
4424    1 2 0.0 13.199895 27.973250 166.367497
4425    1 2 0.0 11.465246 26.259530 168.874436
4426    1 2 0.0 14.150535 30.882063 168.889811
4427    1 2 0.0 12.161388 24.096400 167.295930
4428    1 2 0.0 12.946732 21.507070 164.726224
4429    1 1 0.0 16.113189 38.149885 177.500751
4430    1 1 0.0 12.314149 30.197670 173.861132
4431    1 1 0.0 16.013556 38.161232 174.020449
4432    1 1 0.0 13.118302 34.126022 174.020227
4433    1 2 0.0 15.860426 36.280054 176.747040
4434    1 2 0.0 12.610011 33.015096 172.477398
4435    1 2 0.0 15.304983 32.143869 171.395121
4436    1 2 0.0 14.634187 36.027173 173.466077
4437    1 2 0.0 12.570957 34.727586 175.973016
4438    1 2 0.0 16.189403 38.662740 175.988391
4439    1 2 0.0 12.784533 32.465257 174.394510
4440    1 2 0.0 12.993358 29.767520 171.824804
4441    1 1 0.0 19.672320 45.336759 184.599331
4442    1 1 0.0 14.248672 38.390215 180.959712
4443    1 1 0.0 19.577474 45.369313 181.119029
4444    1 1 0.0 15.880580 42.052932 181.118807
4445    1 2 0.0 19.022504 43.565348 183.845620
4446    1 2 0.0 15.144803 41.077662 179.575978
4447    1 2 0.0 17.588669 39.646081 178.493701
4448    1 2 0.0 17.770582 43.582694 180.564657
4449    1 2 0.0 15.475749 42.758323 183.071596
4450    1 2 0.0 19.857276 45.821135 183.086971
4451    1 2 0.0 15.196720 40.503132 181.493090
4452    1 2 0.0 14.819211 37.823789 178.923384
4453    1 1 0.0 24.696749 51.587653 191.697911
4454    1 1 0.0 17.903419 45.973288 188.058292
4455    1 1 0.0 24.611148 51.639884 188.217609
4456    1 1 0.0 20.286377 49.198211 188.217387
4457    1 2 0.0 23.680424 49.997924 190.944200
4458    1 2 0.0 19.357698 48.404439 186.674558
4459    1 2 0.0 21.435591 46.479791 185.592281
4460    1 2 0.0 22.461662 50.284681 187.663237
4461    1 2 0.0 20.043089 49.974276 190.170176
4462    1 2 0.0 24.981753 52.020783 190.185551
4463    1 2 0.0 19.284571 47.832222 188.591670
4464    1 2 0.0 18.338471 45.297209 186.021964
4465    1 1 0.0 30.950313 56.608759 198.796491
4466    1 1 0.0 23.106607 52.590464 195.156872
4467    1 1 0.0 30.877981 56.678212 195.316189
4468    1 1 0.0 26.128610 55.226013 195.315967
4469    1 2 0.0 29.615249 55.275433 198.042780
4470    1 2 0.0 25.050679 54.651048 193.773138
4471    1 2 0.0 26.664931 52.323796 192.690861
4472    1 2 0.0 28.486932 55.818123 194.761817
4473    1 2 0.0 26.058300 56.036273 197.268756
4474    1 2 0.0 31.321969 56.970285 197.284131
4475    1 2 0.0 24.855944 54.108039 195.690250
4476    1 2 0.0 23.385724 51.836510 193.120544
4477    1 1 0.0 38.139077 60.164071 0.573195
4478    1 1 0.0 29.613671 57.930716 202.255452
4479    1 1 0.0 38.083414 60.247480 202.414769
4480    1 1 0.0 33.132676 59.853012 202.414547
4481    1 2 0.0 36.548025 59.149818 205.141360
4482    1 2 0.0 31.956160 59.523880 200.871718
4483    1 2 0.0 33.030896 56.903412 199.789441
4484    1 2 0.0 35.563188 59.922933 201.860397
4485    1 2 0.0 33.238649 60.659384 204.367336
4486    1 2 0.0 38.579916 60.437000 204.382711
4487    1 2 0.0 31.648970 59.035602 202.788830
4488    1 2 0.0 29.723733 57.134324 200.219124
4489    1 1 0.0 45.925150 62.086478 7.671775
4490    1 1 0.0 37.118762 61.743038 4.032156
4491    1 1 0.0 45.888771 62.179924 4.191473
4492    1 1 0.0 40.969365 62.861728 4.191251
4493    1 2 0.0 44.152894 61.438971 6.918064
4494    1 2 0.0 39.749563 62.793898 2.648422
4495    1 2 0.0 40.234268 60.003383 1.566145
4496    1 2 0.0 43.357827 62.406173 3.637101
4497    1 2 0.0 41.246640 63.626309 6.144040
4498    1 2 0.0 46.414451 62.257982 6.159415
4499    1 2 0.0 39.344357 62.383302 4.565534
4500    1 2 0.0 37.054596 60.941641 1.995828
4501    1 1 0.0 53.942563 62.285622 14.770355
4502    1 1 0.0 45.269118 63.848239 11.130736
4503    1 1 0.0 53.927179 62.384713 11.290053
4504    1 1 0.0 49.270331 64.110742 11.289831
4505    1 2 0.0 52.072404 62.035296 14.016644
4506    1 2 0.0 48.064577 64.307402 9.747002
4507    1 2 0.0 47.936469 61.478004 8.664725
4508    1 2 0.0 51.504477 63.151123 10.735681
4509    1 2 0.0 49.705874 64.797595 13.242620
4510    1 2 0.0 54.457328 62.347640 13.257995
4511    1 2 0.0 47.580400 63.993788 11.664114
4512    1 2 0.0 45.033740 63.079506 9.094408
4513    1 1 0.0 61.814476 60.752144 21.868935
4514    1 1 0.0 53.681650 64.147370 18.229316
4515    1 1 0.0 61.820810 60.852221 18.388633
4516    1 1 0.0 57.645405 63.541348 18.388411
4517    1 2 0.0 59.934317 60.910764 21.115224
4518    1 2 0.0 56.510372 63.993255 16.845582
4519    1 2 0.0 55.775472 61.257961 15.763305
4520    1 2 0.0 59.620225 62.122769 17.834261
4521    1 2 0.0 58.218745 64.118189 20.341200
4522    1 2 0.0 62.330509 60.701759 20.356575
4523    1 2 0.0 55.969983 63.791362 18.762694
4524    1 2 0.0 53.286123 63.447433 16.192988
4525    1 1 0.0 69.117868 52.872851 27.127626
4526    1 1 0.0 63.712219 57.907917 22.519633
4527    1 1 0.0 69.445745 53.100724 23.631839
4528    1 1 0.0 67.350356 56.488008 22.557800
4529    1 2 0.0 67.302370 53.420082 26.543050
4530    1 2 0.0 66.824004 57.272854 20.739794
4531    1 2 0.0 63.772078 54.736990 21.387497
4532    1 2 0.0 68.165765 54.757972 22.681884
4533    1 2 0.0 68.500106 56.782778 23.917426
4534    1 2 0.0 69.760032 52.776817 25.566317
4535    1 2 0.0 65.712007 57.053099 23.041666
4536    1 2 0.0 62.911981 57.403716 20.890505
4537    1 1 0.0 74.604464 48.289947 34.226206
4538    1 1 0.0 70.411032 54.371727 29.618213
4539    1 1 0.0 74.973748 48.441799 30.730419
4540    1 1 0.0 73.657643 52.201084 29.656380
4541    1 2 0.0 72.949574 49.215600 33.641630
4542    1 2 0.0 73.312814 53.080926 27.838374
4543    1 2 0.0 69.786074 51.262421 28.486077
4544    1 2 0.0 74.081025 50.335965 29.780464
4545    1 2 0.0 74.843903 52.241127 31.016006
4546    1 2 0.0 75.210839 48.057768 32.664897
4547    1 2 0.0 72.179588 53.105997 30.140246
4548    1 2 0.0 69.520933 54.051846 27.989085
4549    1 1 0.0 78.974393 42.632256 41.324786
4550    1 1 0.0 76.190280 49.474890 36.716793
4551    1 1 0.0 79.367726 42.700950 37.828999
4552    1 1 0.0 78.892766 46.655538 36.754960
4553    1 2 0.0 77.557895 43.892823 40.740210
4554    1 2 0.0 78.745668 47.589021 34.936954
4555    1 2 0.0 74.909880 46.573350 35.584657
4556    1 2 0.0 78.904221 44.743003 36.879044
4557    1 2 0.0 80.059777 46.438973 38.114586
4558    1 2 0.0 79.516477 42.274845 39.763477
4559    1 2 0.0 77.644478 47.857740 37.238826
4560    1 2 0.0 75.252158 49.354364 35.087665
4561    1 1 0.0 82.022255 36.165705 48.423366
4562    1 1 0.0 80.778324 43.447569 43.815373
4563    1 1 0.0 82.421149 36.148012 44.927579
4564    1 1 0.0 82.809660 40.112026 43.853540
4565    1 2 0.0 80.910729 37.701935 47.838790
4566    1 2 0.0 82.867207 41.055274 42.035534
4567    1 2 0.0 78.902664 40.890176 42.683237
4568    1 2 0.0 82.408648 38.241970 43.977624
4569    1 2 0.0 83.902570 39.649032 45.213166
4570    1 2 0.0 82.474569 35.699862 46.862057
4571    1 2 0.0 81.849811 41.555011 44.337406
4572    1 2 0.0 79.836273 43.532064 42.186245
4573    1 1 0.0 83.604793 29.194240 55.521946
4574    1 1 0.0 83.959511 36.573067 50.913953
4575    1 1 0.0 83.990500 29.090991 52.026159
4576    1 1 0.0 85.224219 32.878113 50.952120
4577    1 2 0.0 82.850484 30.933927 54.937370
4578    1 2 0.0 85.483706 33.786790 49.134114
4579    1 2 0.0 81.576752 34.480026 49.781817
4580    1 2 0.0 84.429590 31.138433 51.076204
4581    1 2 0.0 86.191658 32.190452 52.311746
4582    1 2 0.0 83.946077 28.641860 53.960637
4583    1 2 0.0 84.597925 34.494056 51.435986
4584    1 2 0.0 83.057810 36.858610 49.284825
4585    1 1 0.0 83.647623 22.045540 62.620526
4586    1 1 0.0 85.584317 29.174504 58.012533
4587    1 1 0.0 84.002012 21.861589 59.124739
4588    1 1 0.0 86.022952 25.293812 58.050700
4589    1 2 0.0 83.285985 23.906913 62.035950
4590    1 2 0.0 86.472182 26.125208 56.232694
4591    1 2 0.0 82.806456 27.644193 56.880397
4592    1 2 0.0 84.872056 23.766278 58.174784
4593    1 2 0.0 86.819447 24.413806 59.410326
4594    1 2 0.0 83.861835 21.432587 61.059217
4595    1 2 0.0 85.759651 27.006759 58.534566
4596    1 2 0.0 84.765348 29.647674 56.383405
4597    1 1 0.0 82.148731 15.055613 69.719106
4598    1 1 0.0 85.576371 21.599633 65.111113
4599    1 1 0.0 82.455146 14.799606 66.223319
4600    1 1 0.0 85.168317 17.715606 65.149280
4601    1 2 0.0 82.196763 16.951183 69.134530
4602    1 2 0.0 85.786175 18.430644 63.331274
4603    1 2 0.0 82.533976 20.703982 63.978977
4604    1 2 0.0 83.715249 16.472018 65.273364
4605    1 2 0.0 85.756431 16.684618 66.508906
4606    1 2 0.0 82.225803 14.410898 68.157797
4607    1 2 0.0 85.280385 19.445044 65.633146
4608    1 2 0.0 84.878629 22.238191 63.481985
4609    1 1 0.0 79.178571 8.553006 76.817686
4610    1 1 0.0 83.936048 14.204495 72.209693
4611    1 1 0.0 79.422609 8.236976 73.321899
4612    1 1 0.0 82.700483 10.499693 72.247860
4613    1 2 0.0 79.634014 10.393676 76.233110
4614    1 2 0.0 83.457929 11.064764 70.429854
4615    1 2 0.0 80.772120 13.985601 71.077557
4616    1 2 0.0 81.013541 9.598502 72.371944
4617    1 2 0.0 83.052574 9.366182 73.607486
4618    1 2 0.0 79.114880 7.906832 75.256377
4619    1 2 0.0 83.182653 12.164334 72.731726
4620    1 2 0.0 83.392328 14.978425 70.580565
4621    1 1 0.0 74.876747 2.843360 83.916266
4622    1 1 0.0 80.740447 7.336682 79.308273
4623    1 1 0.0 75.046938 2.482161 80.420479
4624    1 1 0.0 78.735447 3.985242 79.346440
4625    1 2 0.0 75.718194 4.542613 83.331690
4626    1 2 0.0 79.596877 4.373785 77.528434
4627    1 2 0.0 77.603698 7.804834 78.176137
4628    1 2 0.0 76.893922 3.468805 79.470524
4629    1 2 0.0 78.834964 2.802486 80.706066
4630    1 2 0.0 74.675287 2.226099 82.354957
4631    1 2 0.0 79.565054 5.506842 79.830306
4632    1 2 0.0 80.376306 8.209608 77.679145
4633    1 1 0.0 69.445457 -1.804956 91.014846
4634    1 1 0.0 76.139770 1.318999 86.406853
4635    1 1 0.0 69.533801 -2.194347 87.519059
4636    1 1 0.0 73.459575 -1.521552 86.445020
4637    1 2 0.0 70.633359 -0.326990 90.430270
4638    1 2 0.0 74.384501 -1.327799 84.627014
4639    1 2 0.0 73.177637 2.452193 85.274717
4640    1 2 0.0 71.550025 -1.628959 86.569104
4641    1 2 0.0 73.301841 -2.697960 87.804646
4642    1 2 0.0 69.115698 -2.364292 89.453537
4643    1 2 0.0 74.597626 -0.214512 86.928886
4644    1 2 0.0 75.972323 2.249892 84.777725
4645    1 1 0.0 63.139988 -5.173458 98.113426
4646    1 1 0.0 70.350262 -3.565704 93.505433
4647    1 1 0.0 63.142333 -5.572738 94.617639
4648    1 1 0.0 67.120849 -5.761853 93.543600
4649    1 2 0.0 64.618509 -3.986248 97.528850
4650    1 2 0.0 68.065796 -5.771996 91.725594
4651    1 2 0.0 67.701973 -1.820732 92.373297
4652    1 2 0.0 65.233027 -5.455182 93.667684
4653    1 2 0.0 66.713278 -6.876618 94.903226
4654    1 2 0.0 62.697428 -5.648578 96.552117
4655    1 2 0.0 68.513853 -4.730807 94.027466
4656    1 2 0.0 70.387379 -2.620600 91.876305
4657    1 1 0.0 56.256714 -7.103818 105.212006
4658    1 1 0.0 63.644046 -7.087833 100.604013
4659    1 1 0.0 56.172950 -7.494219 101.716219
4660    1 1 0.0 60.017206 -8.536354 100.642180
4661    1 2 0.0 57.956360 -6.263165 104.627430
4662    1 2 0.0 60.937760 -8.749918 98.824174
4663    1 2 0.0 61.434078 -4.813101 99.471877
4664    1 2 0.0 58.239845 -7.830020 100.766264
4665    1 2 0.0 59.378956 -9.537079 102.001806
4666    1 2 0.0 55.722155 -7.472389 103.650697
4667    1 2 0.0 61.599687 -7.829764 101.126046
4668    1 2 0.0 63.883983 -6.172940 98.974885
4669    1 1 0.0 49.119168 -7.505302 112.310586
4670    1 1 0.0 56.336332 -9.081838 107.702593
4671    1 1 0.0 48.953232 -7.868475 108.814799
4672    1 1 0.0 52.482538 -9.714647 107.740760
4673    1 2 0.0 50.960051 -7.050720 111.726010
4674    1 2 0.0 53.335429 -10.121593 105.922754
4675    1 2 0.0 54.668561 -6.384265 106.570457
4676    1 2 0.0 50.899179 -8.641849 107.864844
4677    1 2 0.0 51.643607 -10.554296 109.100386
4678    1 2 0.0 48.517737 -7.750001 110.749277
4679    1 2 0.0 54.180115 -9.365725 108.224626
4680    1 2 0.0 56.767812 -8.240159 106.073465
4681    1 1 0.0 42.062836 -6.359040 119.409166
4682    1 1 0.0 48.770605 -9.453996 114.801173
4683    1 1 0.0 41.822526 -6.677915 115.913379
4684    1 1 0.0 44.870995 -9.241348 114.839340
4685    1 2 0.0 43.958428 -6.311895 118.824590
4686    1 2 0.0 45.616135 -9.822549 113.021334
4687    1 2 0.0 47.723420 -6.460375 113.669037
4688    1 2 0.0 43.556061 -7.852512 114.963424
4689    1 2 0.0 43.870816 -9.880455 116.198966
4690    1 2 0.0 41.422800 -6.468366 117.847857
4691    1 2 0.0 46.603878 -9.266495 115.323206
4692    1 2 0.0 49.373346 -8.725091 113.172045
4693    1 1 0.0 35.419383 -3.718910 126.507746
4694    1 1 0.0 41.302474 -8.186813 121.899753
4695    1 1 0.0 35.115996 -3.978498 123.011959
4696    1 1 0.0 37.540341 -7.138705 121.937920
4697    1 2 0.0 37.280588 -4.081418 125.923170
4698    1 2 0.0 38.142707 -7.866842 120.119914
4699    1 2 0.0 40.925096 -5.037854 120.767617
4700    1 2 0.0 36.555637 -5.499108 122.062004
4701    1 2 0.0 36.425925 -7.547229 123.297546
4702    1 2 0.0 34.770827 -3.687723 124.946437
4703    1 2 0.0 39.227079 -7.536738 122.421786
4704    1 2 0.0 42.048146 -7.604944 120.270625
4705    1 1 0.0 29.501072 0.290996 133.606326
4706    1 1 0.0 34.282963 -5.339851 128.998333
4707    1 1 0.0 29.148868 0.102895 130.110539
4708    1 1 0.0 30.835137 -3.505546 129.036500
4709    1 2 0.0 31.240407 -0.464126 133.021750
4710    1 2 0.0 31.266416 -4.346395 127.218494
4711    1 2 0.0 34.593129 -2.183563 127.866197
4712    1 2 0.0 30.226947 -1.692255 129.160584
4713    1 2 0.0 29.658865 -3.664286 130.396126
4714    1 2 0.0 28.874479 0.461229 132.045017
4715    1 2 0.0 32.396449 -4.257757 129.520366
4716    1 2 0.0 35.136518 -4.932367 127.369205
4717    1 1 0.0 24.586080 5.482200 140.704906
4718    1 1 0.0 28.042008 -1.046926 136.096913
4719    1 1 0.0 24.201612 5.374428 137.209119
4720    1 1 0.0 25.070547 1.487359 136.135080
4721    1 2 0.0 26.121790 4.369956 140.120330
4722    1 2 0.0 25.310468 0.573321 134.317074
4723    1 2 0.0 29.025140 1.968337 134.964777
4724    1 2 0.0 24.867458 3.389115 136.259164
4725    1 2 0.0 23.887707 1.585864 137.494706
4726    1 2 0.0 24.010902 5.783478 139.143597
4727    1 2 0.0 26.433047 0.416327 136.618946
4728    1 2 0.0 28.963325 -0.832979 134.467785
4729    1 1 0.0 20.905424 11.610701 147.803486
4730    1 1 0.0 22.872951 4.490184 143.195493
4731    1 1 0.0 20.506765 11.588324 144.307699
4732    1 1 0.0 20.517523 7.605330 143.233660
4733    1 2 0.0 22.165329 10.193614 147.218910
4734    1 2 0.0 20.554808 6.661064 141.415654
4735    1 2 0.0 24.482839 7.222696 142.063357
4736    1 2 0.0 20.729080 9.506162 143.357744
4737    1 2 0.0 19.383711 7.956450 144.593286
4738    1 2 0.0 20.408696 12.028863 146.242177
4739    1 2 0.0 21.617169 6.265817 143.717526
4740    1 2 0.0 23.818727 4.500537 141.566365
4741    1 1 0.0 18.632107 18.388442 154.902066
4742    1 1 0.0 19.018754 11.011219 150.294073
4743    1 1 0.0 18.237994 18.452511 151.406279
4744    1 1 0.0 17.390069 14.560805 150.332240
4745    1 2 0.0 19.556986 16.733120 154.317490
4746    1 2 0.0 17.222966 13.630695 148.514234
4747    1 2 0.0 21.179728 13.332543 149.161937
4748    1 2 0.0 18.006329 16.371370 150.456324
4749    1 2 0.0 16.358578 15.148037 151.691866
4750    1 2 0.0 18.237176 18.903833 153.340757
4751    1 2 0.0 18.175175 13.015773 150.816106
4752    1 2 0.0 19.944534 10.817491 148.664945
4753    1 1 0.0 17.872979 25.496851 162.000646
4754    1 1 0.0 16.660573 18.209671 157.392653
4755    1 1 0.0 17.501937 25.644355 158.504859
4756    1 1 0.0 15.835185 22.026857 157.430820
4757    1 2 0.0 18.419361 23.681097 161.416070
4758    1 2 0.0 15.471548 21.154621 155.612814
4759    1 2 0.0 19.271062 20.010700 156.260517
4760    1 2 0.0 16.827182 23.662052 157.554904
4761    1 2 0.0 14.954498 22.822599 158.790446
4762    1 2 0.0 17.598410 26.085246 160.439337
4763    1 2 0.0 16.268848 20.348927 157.914686
4764    1 2 0.0 17.522843 17.820969 155.763525
4765    1 1 0.0 18.663724 32.601812 169.099226
4766    1 1 0.0 15.909250 25.747193 164.491233
4767    1 1 0.0 18.333192 32.825818 165.603439
4768    1 1 0.0 15.925955 29.652561 164.529400
4769    1 2 0.0 18.805927 30.710973 168.514650
4770    1 2 0.0 15.382876 28.879196 162.711394
4771    1 2 0.0 18.846554 26.943273 163.359097
4772    1 2 0.0 17.247061 31.035528 164.653484
4773    1 2 0.0 15.237466 30.619411 165.889026
4774    1 2 0.0 18.522420 33.235556 167.537917
4775    1 2 0.0 15.987792 27.920599 165.013266
4776    1 2 0.0 16.667481 25.181786 162.862105
4777    1 1 0.0 20.967173 39.369372 176.197806
4778    1 1 0.0 16.800100 33.269501 171.589813
4779    1 1 0.0 20.692688 39.659351 172.702019
4780    1 1 0.0 17.658111 37.079487 171.627980
4781    1 2 0.0 20.698513 37.492322 175.613230
4782    1 2 0.0 16.961117 36.441343 169.809974
4783    1 2 0.0 19.926156 33.804413 170.457677
4784    1 2 0.0 19.246232 38.145223 171.752064
4785    1 2 0.0 17.194182 38.172000 172.987606
4786    1 2 0.0 20.965777 40.018676 174.636497
4787    1 2 0.0 17.345217 35.374902 172.111846
4788    1 2 0.0 17.418653 32.553965 169.960685
4789    1 1 0.0 24.675057 45.481437 183.296386
4790    1 1 0.0 19.291249 40.423025 178.688393
4791    1 1 0.0 24.469520 45.823760 179.800599
4792    1 1 0.0 20.950239 43.958549 178.726560
4793    1 2 0.0 24.008163 43.706403 182.711810
4794    1 2 0.0 20.132090 43.485622 176.908554
4795    1 2 0.0 22.459125 40.271626 177.556257
4796    1 2 0.0 22.730728 44.656961 178.850644
4797    1 2 0.0 20.732675 45.125374 180.086186
4798    1 2 0.0 24.813635 46.115783 181.735077
4799    1 2 0.0 20.277319 42.361460 179.210426
4800    1 2 0.0 19.741051 39.590992 177.059265
4801    1 1 0.0 29.613097 50.650723 190.394966
4802    1 1 0.0 23.265608 46.871529 185.786973
4803    1 1 0.0 29.486169 51.029298 186.899179
4804    1 1 0.0 25.647598 49.966412 185.825140
4805    1 2 0.0 28.579313 49.061137 189.810390
4806    1 2 0.0 24.746750 49.680929 184.007134
4807    1 2 0.0 26.326404 46.040936 184.654837
4808    1 2 0.0 27.536767 50.264672 185.949224
4809    1 2 0.0 25.686626 51.152705 187.184766
4810    1 2 0.0 29.885134 51.240294 188.833657
4811    1 2 0.0 24.646282 48.551887 186.309006
4812    1 2 0.0 23.525515 45.962108 184.157845
4813    1 1 0.0 35.549189 54.634259 197.493546
4814    1 1 0.0 28.536369 52.311916 192.885553
4815    1 1 0.0 35.506836 55.031293 193.997759
4816    1 1 0.0 31.529400 54.820689 192.923720
4817    1 2 0.0 34.197107 53.304835 196.908970
4818    1 2 0.0 30.588194 54.736070 191.105714
4819    1 2 0.0 31.346220 50.841169 191.753417
4820    1 2 0.0 33.438453 54.704779 193.047804
4821    1 2 0.0 31.823185 55.970691 194.283346
4822    1 2 0.0 35.941899 55.151343 195.932237
4823    1 2 0.0 30.246753 53.655215 193.407586
4824    1 2 0.0 28.594166 51.367851 191.256425
4825    1 1 0.0 42.204321 57.244807 204.592126
4826    1 1 0.0 34.855792 56.488472 199.984133
4827    1 1 0.0 42.248534 57.641638 201.096339
4828    1 1 0.0 38.319183 58.293216 200.022300
4829    1 2 0.0 40.597493 56.238032 204.007550
4830    1 2 0.0 37.381860 58.413437 198.204294
4831    1 2 0.0 37.282627 54.446699 198.851997
4832    1 2 0.0 40.158390 57.768583 200.146384
4833    1 2 0.0 38.853917 59.352874 201.381926
4834    1 2 0.0 42.699246 57.665101 203.030817
4835    1 2 0.0 36.815492 57.431573 200.506166
4836    1 2 0.0 34.708763 55.554137 198.355005
4837    1 1 0.0 49.265684 58.359664 6.368830
4838    1 1 0.0 41.926848 59.204886 1.760837
4839    1 1 0.0 49.394384 58.737641 2.873043
4840    1 1 0.0 45.697809 60.220774 1.799004
4841    1 2 0.0 47.479634 57.722859 5.784254
4842    1 2 0.0 44.808425 60.540185 205.302874
4843    1 2 0.0 43.856597 56.688058 0.628701
4844    1 2 0.0 47.380721 59.312078 1.923088
4845    1 2 0.0 46.448357 61.140280 3.158630
4846    1 2 0.0 49.839561 58.663413 4.807521
4847    1 2 0.0 44.043753 59.703461 2.282870
4848    1 2 0.0 41.581902 58.324198 0.131709
4849    1 1 0.0 56.401373 57.926429 13.467410
4850    1 1 0.0 49.417175 60.333481 8.859417
4851    1 1 0.0 56.608511 58.267785 9.971623
4852    1 1 0.0 53.318461 60.512762 8.897584
4853    1 2 0.0 54.520051 57.689527 12.882834
4854    1 2 0.0 52.518820 61.016351 7.079578
4855    1 2 0.0 50.759137 57.459895 7.727281
4856    1 2 0.0 54.765977 59.262715 9.021668
4857    1 2 0.0 54.249546 61.248898 10.257210
4858    1 2 0.0 57.027228 58.099355 11.906101
4859    1 2 0.0 51.591784 60.364096 9.381450
4860    1 2 0.0 48.890527 59.547834 7.230289
4861    1 1 0.0 63.275991 55.965466 20.565990
4862    1 1 0.0 56.974708 59.821209 15.957997
4863    1 1 0.0 63.551831 56.254156 17.070203
4864    1 1 0.0 60.822948 59.155457 15.996164
4865    1 2 0.0 61.387825 56.139600 19.981414
4866    1 2 0.0 60.150634 59.819552 14.178158
4867    1 2 0.0 57.665806 56.725932 14.825861
4868    1 2 0.0 61.967030 57.622813 16.120248
4869    1 2 0.0 61.890806 59.673621 17.355790
4870    1 2 0.0 63.924407 55.999441 19.004681
4871    1 2 0.0 59.104809 59.382424 16.480030
4872    1 2 0.0 56.291111 59.167531 14.328869
4873    1 1 0.0 67.809264 48.254380 27.449597
4874    1 1 0.0 64.035049 53.089225 22.069365
4875    1 1 0.0 68.170407 48.552925 24.164826
4876    1 1 0.0 67.321795 51.766095 22.195651
4877    1 2 0.0 66.097629 48.730612 26.924745
4878    1 2 0.0 67.110723 52.590031 20.257953
4879    1 2 0.0 62.961305 49.956722 22.018756
4880    1 2 0.0 67.470434 50.109073 22.848853
4881    1 2 0.0 68.705771 52.022914 23.185284
4882    1 2 0.0 68.438600 48.213864 25.978677
4883    1 2 0.0 65.788426 52.268105 22.650899
4884    1 2 0.0 63.075138 52.610461 20.745051
4885    1 1 0.0 72.331224 44.062052 34.548177
4886    1 1 0.0 69.687733 49.596704 29.167945
4887    1 1 0.0 72.748223 44.275746 31.263406
4888    1 1 0.0 72.612069 47.596298 29.294231
4889    1 2 0.0 70.762454 44.895989 34.023325
4890    1 2 0.0 72.583535 48.446361 27.356533
4891    1 2 0.0 67.964094 46.769236 29.117336
4892    1 2 0.0 72.400087 45.946182 29.947433
4893    1 2 0.0 74.018870 47.548801 30.283864
4894    1 2 0.0 72.937037 43.886851 33.077257
4895    1 2 0.0 71.222931 48.416987 29.749479
4896    1 2 0.0 68.647195 49.336075 27.843631
4897    1 1 0.0 75.843365 38.993659 41.646757
4898    1 1 0.0 74.454849 44.967975 36.266525
4899    1 1 0.0 76.296620 39.112458 38.361986
4900    1 1 0.0 76.879324 42.384316 36.392811
4901    1 2 0.0 74.491197 40.146105 41.121905
4902    1 2 0.0 77.034669 43.220551 34.455113
4903    1 2 0.0 72.162332 42.578441 36.215916
4904    1 2 0.0 76.316685 40.818668 37.046013
4905    1 2 0.0 78.242827 42.034737 37.382444
4906    1 2 0.0 76.397181 38.692008 40.175837
4907    1 2 0.0 75.699711 43.485111 36.848059
4908    1 2 0.0 73.382593 44.937731 34.942211
4909    1 1 0.0 78.180607 33.287431 48.745337
4910    1 1 0.0 78.112330 39.420600 43.365105
4911    1 1 0.0 78.648814 33.305750 45.460566
4912    1 1 0.0 79.922987 36.375129 43.491391
4913    1 2 0.0 77.108596 34.704217 48.220485
4914    1 2 0.0 80.254910 37.158231 41.553693
4915    1 2 0.0 75.358689 37.581316 43.314496
4916    1 2 0.0 79.036136 34.967538 44.144593
4917    1 2 0.0 81.179102 35.739898 44.481024
4918    1 2 0.0 78.656395 32.873509 47.274417
4919    1 2 0.0 79.008344 37.704288 43.946639
4920    1 2 0.0 77.058756 39.622164 42.040791
4921    1 1 0.0 79.233093 27.211576 55.843917
4922    1 1 0.0 80.488264 33.215322 50.463685
4923    1 1 0.0 79.694244 27.128555 52.559146
4924    1 1 0.0 81.599996 29.851185 50.589971
4925    1 2 0.0 78.491627 28.826109 55.319065
4926    1 2 0.0 82.092896 30.544345 48.652273
4927    1 2 0.0 77.402928 32.012739 50.413076
4928    1 2 0.0 80.430619 28.667811 51.243173
4929    1 2 0.0 82.689684 28.960160 51.579604
4930    1 2 0.0 79.608489 26.704838 54.372997
4931    1 2 0.0 80.993314 31.346234 51.045219
4932    1 2 0.0 79.502892 33.639219 49.139371
4933    1 1 0.0 78.951353 21.051676 62.942497
4934    1 1 0.0 81.470975 26.643807 57.562265
4935    1 1 0.0 79.383773 20.871218 59.657726
4936    1 1 0.0 81.831529 23.119127 57.688551
4937    1 2 0.0 78.575282 22.788069 62.417645
4938    1 2 0.0 82.462237 23.689766 55.750853
4939    1 2 0.0 78.198964 26.134449 57.511656
4940    1 2 0.0 80.434588 22.215593 58.341753
4941    1 2 0.0 82.703570 22.014188 58.678184
4942    1 2 0.0 79.208712 20.475941 61.471577
4943    1 2 0.0 81.561323 24.709795 58.143799
4944    1 2 0.0 80.600121 27.270113 56.237951
4945    1 1 0.0 77.348629 15.097265 70.041077
4946    1 1 0.0 81.014274 20.014934 64.660845
4947    1 1 0.0 77.731994 14.827850 66.756306
4948    1 1 0.0 80.606702 16.495381 64.787131
4949    1 2 0.0 77.355631 16.873902 69.516225
4950    1 2 0.0 81.345574 16.916676 62.849433
4951    1 2 0.0 77.709381 20.222743 64.610236
4952    1 2 0.0 79.047858 15.914155 65.440333
4953    1 2 0.0 81.220109 15.228464 65.776764
4954    1 2 0.0 77.475856 14.479593 68.570157
4955    1 2 0.0 80.685673 18.106901 65.242379
4956    1 2 0.0 80.298870 20.814211 63.336531
4957    1 1 0.0 74.500254 9.628215 77.139657
4958    1 1 0.0 79.139626 13.640279 71.759425
4959    1 1 0.0 74.816545 9.282508 73.854886
4960    1 1 0.0 77.983085 10.291282 71.885711
4961    1 2 0.0 74.889999 11.361590 76.614805
4962    1 2 0.0 78.795392 10.543431 69.948013
4963    1 2 0.0 75.957190 14.555487 71.708816
4964    1 2 0.0 76.335609 10.059683 72.538913
4965    1 2 0.0 78.309025 8.921936 72.875344
4966    1 2 0.0 74.491368 8.997639 75.668737
4967    1 2 0.0 78.407521 11.847909 72.340959
4968    1 2 0.0 78.613298 14.574958 70.435111
4969    1 1 0.0 70.540110 4.901588 84.238237
4970    1 1 0.0 75.935145 7.819468 78.858005
4971    1 1 0.0 70.774459 4.495838 80.953466
4972    1 1 0.0 74.083996 4.798439 78.984291
4973    1 2 0.0 71.294279 6.510227 83.713385
4974    1 2 0.0 74.931557 4.869592 77.046593
4975    1 2 0.0 73.024751 9.399058 78.807396
4976    1 2 0.0 72.425323 4.927354 79.637493
4977    1 2 0.0 74.107150 3.391027 79.973924
4978    1 2 0.0 70.395529 4.287747 82.767317
4979    1 2 0.0 74.833948 6.227008 79.439539
4980    1 2 0.0 75.622632 8.845617 77.533691
4981    1 1 0.0 65.654335 1.139549 91.336817
4982    1 1 0.0 71.551452 2.826096 85.956585
4983    1 1 0.0 65.795727 0.692826 88.052046
4984    1 1 0.0 69.092704 0.275032 86.082871
4985    1 2 0.0 66.737480 2.547841 90.811965
4986    1 2 0.0 69.935680 0.161843 84.145173
4987    1 2 0.0 69.049894 4.995823 85.905976
4988    1 2 0.0 67.500796 0.758401 86.736073
4989    1 2 0.0 68.811982 -1.104294 87.072504
4990    1 2 0.0 65.380854 0.571294 89.865897
4991    1 2 0.0 70.132921 1.508395 86.538119
4992    1 2 0.0 71.467443 3.895483 84.632271
4993    1 1 0.0 60.072573 -1.481076 98.435397
4994    1 1 0.0 66.194591 -1.105134 93.055165
4995    1 1 0.0 60.114364 -1.947774 95.150626
4996    1 1 0.0 63.243812 -3.066326 93.181451
4997    1 2 0.0 61.433783 -0.339324 97.910545
4998    1 2 0.0 64.042582 -3.358536 91.243753
4999    1 2 0.0 64.219451 1.552746 93.004556
5000    1 2 0.0 61.793493 -2.251223 93.834653
5001    1 2 0.0 62.672410 -4.352734 94.171084
5002    1 2 0.0 59.683047 -1.977035 96.964477
5003    1 2 0.0 64.525401 -2.086140 93.636699
5004    1 2 0.0 66.343034 -0.042773 91.730851
5005    1 1 0.0 54.057184 -2.837111 105.533977
5006    1 1 0.0 60.116350 -3.789444 100.153745
5007    1 1 0.0 53.997408 -3.301848 102.249206
5008    1 1 0.0 56.812235 -5.068582 100.280031
5009    1 2 0.0 55.632478 -2.015565 105.009125
5010    1 2 0.0 57.529255 -5.526079 98.342333
5011    1 2 0.0 58.760465 -0.768339 100.103136
5012    1 2 0.0 55.571675 -3.960058 100.933233
5013    1 2 0.0 55.977010 -6.201608 101.269664
5014    1 2 0.0 53.569921 -3.237461 104.063057
5015    1 2 0.0 58.274958 -4.387646 100.735279
5016    1 2 0.0 60.490269 -2.784043 98.829431
5017    1 1 0.0 47.890907 -2.864818 112.632557
5018    1 1 0.0 53.602423 -5.100664 107.252325
5019    1 1 0.0 47.732374 -3.305749 109.347786
5020    1 1 0.0 50.100275 -5.637625 107.378611
5021    1 2 0.0 49.606242 -2.402093 112.107705
5022    1 2 0.0 50.701843 -6.238905 105.440913
5023    1 2 0.0 52.929524 -1.858333 107.201716
5024    1 2 0.0 49.127783 -4.287782 108.031813
5025    1 2 0.0 49.040486 -6.564012 108.368244
5026    1 2 0.0 47.328811 -3.150743 111.161637
5027    1 2 0.0 51.675381 -5.287943 107.833859
5028    1 2 0.0 54.184242 -4.199480 105.928011
5029    1 1 0.0 41.863574 -1.562894 119.731137
5030    1 1 0.0 46.958984 -4.977162 114.350905
5031    1 1 0.0 41.613736 -1.959295 116.446366
5032    1 1 0.0 43.423414 -4.746708 114.477191
5033    1 2 0.0 43.638326 -1.480739 119.206285
5034    1 2 0.0 43.881253 -5.463509 112.539493
5035    1 2 0.0 47.000698 -1.666005 114.300296
5036    1 2 0.0 42.764700 -3.218993 115.130393
5037    1 2 0.0 42.188873 -5.422914 115.466824
5038    1 2 0.0 41.253065 -1.720955 118.260217
5039    1 2 0.0 45.036867 -4.744717 114.932439
5040    1 2 0.0 47.721356 -4.222553 113.026591
5041    1 1 0.0 36.258488 1.007465 126.829717
5042    1 1 0.0 40.498293 -3.424744 121.449485
5043    1 1 0.0 35.929088 0.674227 123.544946
5044    1 1 0.0 37.095482 -2.437707 121.575771
5045    1 2 0.0 38.009237 0.705189 126.304865
5046    1 2 0.0 37.388074 -3.236337 119.638073
5047    1 2 0.0 41.252660 -0.200394 121.398876
5048    1 2 0.0 36.781508 -0.803927 122.228973
5049    1 2 0.0 35.744216 -2.831948 122.565404
5050    1 2 0.0 35.628261 0.984699 125.358797
5051    1 2 0.0 38.671446 -2.783499 122.031019
5052    1 2 0.0 41.405385 -2.852179 120.125171
5053    1 1 0.0 31.339103 4.725448 133.928297
5054    1 1 0.0 34.524020 -0.516378 128.548065
5055    1 1 0.0 30.945623 4.471034 130.643526
5056    1 1 0.0 31.413910 1.180850 128.674351
5057    1 2 0.0 32.983559 4.052947 133.403445
5058    1 2 0.0 31.527501 0.337927 126.736653
5059    1 2 0.0 35.955582 2.469612 128.497456
5060    1 2 0.0 31.459433 2.843902 129.327553
5061    1 2 0.0 30.009432 1.087104 129.663984
5062    1 2 0.0 30.718780 4.839045 132.457377
5063    1 2 0.0 32.878310 0.503526 129.129599
5064    1 2 0.0 35.533195 -0.152768 127.223751
5065    1 1 0.0 27.336644 9.416296 141.026877
5066    1 1 0.0 29.316973 3.611236 135.646645
5067    1 1 0.0 26.897579 9.252666 137.742106
5068    1 1 0.0 26.645747 5.938879 135.772931
5069    1 2 0.0 28.797513 8.405181 140.502025
5070    1 2 0.0 26.575000 5.091285 133.835233
5071    1 2 0.0 31.358443 6.218515 135.596036
5072    1 2 0.0 27.048628 7.553036 136.426133
5073    1 2 0.0 25.254072 6.150035 136.762564
5074    1 2 0.0 26.755383 9.660919 139.555957
5075    1 2 0.0 27.929752 4.961860 136.228179
5076    1 2 0.0 30.380798 3.748799 134.322331
5077    1 1 0.0 24.439238 14.859528 148.125457
5078    1 1 0.0 25.121898 8.764087 142.745225
5079    1 1 0.0 23.975225 14.794373 144.840686
5080    1 1 0.0 23.015112 11.612740 142.871511
5081    1 2 0.0 25.647854 13.557324 147.600605
5082    1 2 0.0 22.763350 10.800313 140.933813
5083    1 2 0.0 27.677321 10.870106 142.694616
5084    1 2 0.0 23.756414 13.102132 143.524713
5085    1 2 0.0 21.701652 12.118872 143.861144
5086    1 2 0.0 23.924359 15.223677 146.654537
5087    1 2 0.0 24.058370 10.381949 143.326759
5088    1 2 0.0 26.190369 8.669138 141.420911
5089    1 1 0.0 22.783070 20.799297 155.224037
5090    1 1 0.0 22.135974 14.699978 149.843805
5091    1 1 0.0 22.315920 20.835678 151.939266
5092    1 1 0.0 20.692653 17.935745 149.970091
5093    1 2 0.0 23.682627 19.267210 154.699185
5094    1 2 0.0 20.271711 17.196672 148.032393
5095    1 2 0.0 25.085238 16.205748 149.793196
5096    1 2 0.0 21.737533 19.230366 150.623293
5097    1 2 0.0 19.519145 18.713065 150.959724
5098    1 2 0.0 22.358774 21.265857 153.753117
5099    1 2 0.0 21.446129 16.509033 150.425339
5100    1 2 0.0 23.158871 14.376979 148.519491
5101    1 1 0.0 22.445986 26.956416 162.322617
5102    1 1 0.0 20.499550 21.139904 156.942385
5103    1 1 0.0 21.997655 27.092624 159.037846
5104    1 1 0.0 19.787534 24.610696 157.068671
5105    1 2 0.0 22.994201 25.266460 161.797765
5106    1 2 0.0 19.217196 23.979716 155.130973
5107    1 2 0.0 23.704031 21.974650 156.891776
5108    1 2 0.0 21.086878 25.649696 157.721873
5109    1 2 0.0 18.809136 25.622666 158.058304
5110    1 2 0.0 22.132216 27.503457 160.851697
5111    1 2 0.0 20.215811 23.055121 157.523919
5112    1 2 0.0 21.428793 20.604037 155.618071
5113    1 1 0.0 23.443829 33.041483 169.421197
5114    1 1 0.0 20.289541 27.781171 164.040965
5115    1 1 0.0 23.035391 33.271117 166.136426
5116    1 1 0.0 20.342296 31.323851 164.167251
5117    1 2 0.0 23.614935 31.273090 168.896345
5118    1 2 0.0 19.649371 30.830621 162.229553
5119    1 2 0.0 23.598620 27.905657 163.990356
5120    1 2 0.0 21.835033 32.058393 164.820453
5121    1 2 0.0 19.604995 32.522907 165.156884
5122    1 2 0.0 23.255334 33.643293 167.950277
5123    1 2 0.0 20.425245 29.712531 164.622499
5124    1 2 0.0 21.081453 27.057624 162.716651
5125    1 1 0.0 25.729699 38.768485 176.519777
5126    1 1 0.0 21.515818 34.311621 171.139545
5127    1 1 0.0 25.380351 39.080749 173.235006
5128    1 1 0.0 22.330865 37.759673 171.265831
5129    1 2 0.0 25.515652 37.004774 175.994925
5130    1 2 0.0 21.547922 37.427376 169.328133
5131    1 2 0.0 24.773959 33.719996 171.088936
5132    1 2 0.0 23.946832 38.155232 171.919033
5133    1 2 0.0 21.869317 39.089455 172.255464
5134    1 2 0.0 25.675338 39.396776 175.048857
5135    1 2 0.0 22.064587 36.168344 171.721079
5136    1 2 0.0 22.133178 33.434402 169.815231
5137    1 1 0.0 29.196152 43.868234 183.618357
5138    1 1 0.0 24.120743 40.424304 178.238125
5139    1 1 0.0 28.922314 44.248453 180.333586
5140    1 1 0.0 25.659773 43.615661 178.364411
5141    1 2 0.0 28.607014 42.192105 183.093505
5142    1 2 0.0 24.823612 43.459916 176.426713
5143    1 2 0.0 27.174804 39.144377 178.187516
5144    1 2 0.0 27.323015 43.653644 179.017613
5145    1 2 0.0 25.495671 45.013665 179.354044
5146    1 2 0.0 29.278480 44.493476 182.147437
5147    1 2 0.0 25.056783 42.119119 178.819659
5148    1 2 0.0 24.534533 39.434646 176.913811
5149    1 1 0.0 33.680255 48.101029 190.716937
5150    1 1 0.0 27.981877 45.831908 185.336705
5151    1 1 0.0 33.494800 48.531331 187.432166
5152    1 1 0.0 30.172551 48.616565 185.462991
5153    1 2 0.0 32.743717 46.591265 190.192085
5154    1 2 0.0 29.322474 48.644693 183.525293
5155    1 2 0.0 30.688308 43.923838 185.286096
5156    1 2 0.0 31.804890 48.295188 186.116193
5157    1 2 0.0 30.313609 50.017083 186.452624
5158    1 2 0.0 33.895403 48.693833 189.246017
5159    1 2 0.0 29.261192 47.285153 185.918239
5160    1 2 0.0 28.172647 44.776326 184.012391
5161    1 1 0.0 38.971244 51.267917 197.815517
5162    1 1 0.0 32.917736 50.280259 192.435285
5163    1 1 0.0 38.882887 51.728076 194.530746
5164    1 1 0.0 35.657086 52.527331 192.561571
5165    1 2 0.0 37.731326 49.995481 197.290665
5166    1 2 0.0 34.833049 52.738009 190.623873
5167    1 2 0.0 35.149328 47.833731 192.384676
5168    1 2 0.0 37.181798 51.861698 193.214773
5169    1 2 0.0 36.096673 53.864533 193.551204
5170    1 2 0.0 39.309099 51.800420 196.344597
5171    1 2 0.0 34.480194 51.423628 193.016819
5172    1 2 0.0 32.876520 49.208369 191.110971
5173    1 1 0.0 44.820427 53.220045 204.914097
5174    1 1 0.0 38.696321 53.560273 199.533865
5175    1 1 0.0 44.833321 53.688432 201.629326
5176    1 1 0.0 41.855589 55.164140 199.660151
5177    1 2 0.0 43.335408 52.244744 204.389245
5178    1 2 0.0 41.096325 55.547467 197.722453
5179    1 2 0.0 40.348183 50.690281 199.483256
5180    1 2 0.0 43.201010 54.185539 200.313353
5181    1 2 0.0 42.573045 56.375174 200.649784
5182    1 2 0.0 45.265108 53.667217 203.443177
5183    1 2 0.0 40.468482 54.340024 200.115399
5184    1 2 0.0 38.425056 52.522457 198.209551
5185    1 1 0.0 50.952875 53.865657 6.690801
5186    1 1 0.0 45.046022 55.517779 1.310569
5187    1 1 0.0 51.066416 54.320257 3.406030
5188    1 1 0.0 48.476715 56.403056 1.436855
5189    1 2 0.0 49.292556 53.233334 6.165949
5190    1 2 0.0 47.817910 56.941014 204.821033
5191    1 2 0.0 46.040511 52.359220 1.259960
5192    1 2 0.0 49.579604 55.157483 2.090057
5193    1 2 0.0 49.438316 57.431001 2.426488
5194    1 2 0.0 51.483483 54.206480 5.219881
5195    1 2 0.0 46.944590 55.897263 1.892103
5196    1 2 0.0 44.557458 54.562818 205.308131
5197    1 1 0.0 57.080347 53.174408 13.789381
5198    1 1 0.0 51.668385 56.060770 8.409149
5199    1 1 0.0 57.289197 53.593854 10.504610
5200    1 1 0.0 55.209250 56.185846 8.535435
5201    1 2 0.0 55.322768 52.914783 13.264529
5202    1 2 0.0 54.681871 56.853149 6.597737
5203    1 2 0.0 51.958758 52.762106 8.358540
5204    1 2 0.0 56.017769 54.731847 9.188637
5205    1 2 0.0 56.369798 56.982385 9.525068
5206    1 2 0.0 57.671940 53.392863 12.318461
5207    1 2 0.0 53.604121 56.022149 8.990683
5208    1 2 0.0 50.985486 55.233549 7.084835
5209    1 1 0.0 62.914835 51.178788 20.887961
5210    1 1 0.0 58.252141 55.163724 15.507729
5211    1 1 0.0 63.209176 51.543364 17.603190
5212    1 1 0.0 61.736747 54.522720 15.634015
5213    1 2 0.0 61.142606 51.304065 20.363109
5214    1 2 0.0 61.365582 55.288002 13.696317
5215    1 2 0.0 57.824749 51.880000 15.457120
5216    1 2 0.0 62.212894 52.928636 16.287217
5217    1 2 0.0 63.041694 55.050412 16.623648
5218    1 2 0.0 63.539607 51.264607 19.417041
5219    1 2 0.0 60.134061 54.708812 16.089263
5220    1 2 0.0 57.407005 54.503124 14.183415
5221    1 1 0.0 64.516807 44.039702 29.576444
5222    1 1 0.0 62.604710 48.336968 23.183175
5223    1 1 0.0 64.503024 44.358064 26.853416
5224    1 1 0.0 65.251824 47.232899 23.661185
5225    1 2 0.0 62.976564 44.356144 29.037777
5226    1 2 0.0 65.254648 48.023691 21.689240
5227    1 2 0.0 59.971809 45.223183 24.592801
5228    1 2 0.0 64.575166 45.700063 24.988699
5229    1 2 0.0 66.887848 47.527728 24.272543
5230    1 2 0.0 64.915708 44.061446 28.387479
5231    1 2 0.0 63.994886 47.625035 23.932001
5232    1 2 0.0 61.400262 47.817206 22.238207
5233    1 1 0.0 68.207781 40.656027 36.675024
5234    1 1 0.0 67.266784 45.264404 30.281755
5235    1 1 0.0 68.262937 40.969878 33.951996
5236    1 1 0.0 69.613734 43.615766 30.759765
5237    1 2 0.0 66.771937 41.296991 36.136357
5238    1 2 0.0 69.786926 44.387364 28.787820
5239    1 2 0.0 64.024665 42.791249 31.691381
5240    1 2 0.0 68.622616 42.264789 32.087279
5241    1 2 0.0 71.274852 43.551064 31.371123
5242    1 2 0.0 68.601994 40.591288 35.486059
5243    1 2 0.0 68.470851 44.269586 31.030581
5244    1 2 0.0 65.978621 45.016444 29.336787
5245    1 1 0.0 71.082750 36.556380 43.773604
5246    1 1 0.0 71.157082 41.259261 37.380335
5247    1 1 0.0 71.204252 36.850968 41.050576
5248    1 1 0.0 73.093555 39.143545 37.858345
5249    1 2 0.0 69.818793 37.491739 43.234937
5250    1 2 0.0 73.428974 39.859683 35.886400
5251    1 2 0.0 67.458134 39.542983 38.789961
5252    1 2 0.0 71.834562 38.037928 39.185859
5253    1 2 0.0 74.701689 38.722354 38.469703
5254    1 2 0.0 71.453745 36.408200 42.584639
5255    1 2 0.0 72.118445 40.028318 38.129161
5256    1 2 0.0 69.845752 41.294758 36.435367
5257    1 1 0.0 73.006582 31.933457 50.872184
5258    1 1 0.0 74.092749 36.509794 44.478915
5259    1 1 0.0 73.188719 32.194935 48.149156
5260    1 1 0.0 75.527725 34.026444 44.956925
5261    1 2 0.0 71.973921 33.119247 50.333517
5262    1 2 0.0 76.009606 34.653461 42.984980
5263    1 2 0.0 70.110833 35.631061 45.888541
5264    1 2 0.0 74.060033 33.218153 46.284439
5265    1 2 0.0 77.007289 33.268560 45.568283
5266    1 2 0.0 73.336922 31.708801 49.683219
5267    1 2 0.0 74.766221 35.100583 45.227741
5268    1 2 0.0 72.819888 36.827079 43.533947
5269    1 1 0.0 73.888851 27.004548 57.970764
5270    1 1 0.0 75.935801 31.239239 51.577495
5271    1 1 0.0 74.123062 27.220626 55.247736
5272    1 1 0.0 76.801833 28.504980 52.055505
5273    1 2 0.0 73.136025 28.385033 57.432097
5274    1 2 0.0 77.407525 29.013404 50.083560
5275    1 2 0.0 71.858078 31.239356 52.987121
5276    1 2 0.0 75.194427 28.032008 53.383019
5277    1 2 0.0 78.083282 27.446026 52.666863
5278    1 2 0.0 74.163008 26.713976 56.781799
5279    1 2 0.0 76.289727 29.717997 52.326321
5280    1 2 0.0 74.761236 31.823400 50.632527
5281    1 1 0.0 73.688088 22.001325 65.069344
5282    1 1 0.0 76.599609 25.695329 58.676075
5283    1 1 0.0 73.963365 22.161847 62.346316
5284    1 1 0.0 76.855990 22.838678 59.154085
5285    1 2 0.0 73.250482 23.511618 64.530677
5286    1 2 0.0 77.557025 23.204612 57.182140
5287    1 2 0.0 72.617743 26.574289 60.085701
5288    1 2 0.0 75.184424 22.723255 60.481599
5289    1 2 0.0 77.879094 21.528428 59.765443
5290    1 2 0.0 73.893178 21.658494 63.880379
5291    1 2 0.0 76.617353 24.133559 59.424901
5292    1 2 0.0 75.578548 26.518907 57.731107
5293    1 1 0.0 72.413731 17.158954 72.167924
5294    1 1 0.0 76.052972 20.138641 65.774655
5295    1 1 0.0 72.717134 17.256374 69.444896
5296    1 1 0.0 75.687651 17.293870 66.252665
5297    1 2 0.0 72.311913 18.728068 71.629257
5298    1 2 0.0 76.451079 17.500114 64.280720
5299    1 2 0.0 72.354122 21.855131 67.184281
5300    1 2 0.0 74.030493 17.541422 67.580179
5301    1 2 0.0 76.404321 15.793910 66.864023
5302    1 2 0.0 72.540112 16.779978 70.978959
5303    1 2 0.0 75.733701 18.609751 66.523481
5304    1 2 0.0 75.233408 21.162928 64.829687
5305    1 1 0.0 70.125676 12.705040 79.266504
5306    1 1 0.0 74.321583 14.830357 72.873235
5307    1 1 0.0 70.442946 12.734780 76.543476
5308    1 1 0.0 73.351733 12.131177 73.351245
5309    1 2 0.0 70.364432 14.259221 78.727837
5310    1 2 0.0 74.141670 12.168038 71.379300
5311    1 2 0.0 71.079606 17.303697 74.282861
5312    1 2 0.0 71.786873 12.730068 74.678759
5313    1 2 0.0 73.728283 10.512009 73.962603
5314    1 2 0.0 70.167409 12.307732 78.077539
5315    1 2 0.0 73.680303 13.406208 73.622061
5316    1 2 0.0 73.742039 16.007207 71.928267
5317    1 1 0.0 66.931470 8.848929 86.365084
5318    1 1 0.0 71.486824 10.019981 79.971815
5319    1 1 0.0 67.247693 8.809591 83.642056
5320    1 1 0.0 69.958029 7.593261 80.449825
5321    1 2 0.0 67.499578 10.315127 85.826417
5322    1 2 0.0 70.737345 7.459005 78.477880
5323    1 2 0.0 68.854101 13.133917 81.381441
5324    1 2 0.0 68.559021 8.515342 81.777339
5325    1 2 0.0 69.976760 5.930990 81.061183
5326    1 2 0.0 66.886593 8.451964 85.176119
5327    1 2 0.0 70.553677 8.767512 80.720641
5328    1 2 0.0 71.174538 11.294078 79.026847
5329    1 1 0.0 62.981248 5.771869 93.463664
5330    1 1 0.0 67.681935 5.933613 87.070395
5331    1 1 0.0 63.281561 5.665302 90.740636
5332    1 1 0.0 65.666052 3.893416 87.548405
5333    1 2 0.0 63.852006 7.081169 92.924997
5334    1 2 0.0 66.398118 3.594354 85.576460
5335    1 2 0.0 65.782212 9.541781 88.480021
5336    1 2 0.0 64.498654 5.095346 88.875919
5337    1 2 0.0 65.326084 2.266174 88.159763
5338    1 2 0.0 62.851870 5.393906 92.274699
5339    1 2 0.0 66.500781 4.911694 87.819221
5340    1 2 0.0 67.651586 7.245072 86.125427
5341    1 1 0.0 58.460683 3.618491 100.562244
5342    1 1 0.0 63.085756 2.763324 94.168975
5343    1 1 0.0 58.730970 3.449705 97.839216
5344    1 1 0.0 60.677539 1.205546 94.646985
5345    1 2 0.0 59.593162 4.709352 100.023577
5346    1 2 0.0 61.327946 0.755734 92.675040
5347    1 2 0.0 62.008326 6.696131 95.578601
5348    1 2 0.0 59.796620 2.630831 95.974499
5349    1 2 0.0 59.994851 -0.310183 95.258343
5350    1 2 0.0 58.252886 3.277295 99.373279
5351    1 2 0.0 61.712114 2.019989 94.917801
5352    1 2 0.0 63.338772 4.050503 93.224007
5353    1 1 0.0 53.582253 2.490010 107.660824
5354    1 1 0.0 57.914322 0.658128 101.267555
5355    1 1 0.0 53.809811 2.266937 104.937796
5356    1 1 0.0 55.226963 -0.344013 101.745565
5357    1 2 0.0 54.923223 3.311158 107.122157
5358    1 2 0.0 55.765139 -0.923431 99.773620
5359    1 2 0.0 57.709826 4.730720 102.677181
5360    1 2 0.0 54.673930 1.237635 103.073079
5361    1 2 0.0 54.233644 -1.676985 102.356923
5362    1 2 0.0 53.305804 2.201618 106.471859
5363    1 2 0.0 56.412756 0.228314 102.016381
5364    1 2 0.0 58.438809 1.860525 100.322587
5365    1 1 0.0 48.575259 2.439468 114.759404
5366    1 1 0.0 52.410704 -0.283027 108.366135
5367    1 1 0.0 48.749391 2.172592 112.036376
5368    1 1 0.0 49.570517 -0.682426 108.844145
5369    1 2 0.0 50.061691 2.952306 114.220737
5370    1 2 0.0 49.971166 -1.364217 106.872200
5371    1 2 0.0 53.088754 3.737927 109.775761
5372    1 2 0.0 49.371363 0.981242 110.171659
5373    1 2 0.0 48.313254 -1.769988 109.455503
5374    1 2 0.0 48.243151 2.217434 113.570439
5375    1 2 0.0 50.851791 -0.379116 109.114961
5376    1 2 0.0 53.182010 0.778073 107.421167
5377    1 1 0.0 43.675043 3.469239 121.857984
5378    1 1 0.0 46.833587 -0.015903 115.464715
5379    1 1 0.0 43.787565 3.171106 119.134956
5380    1 1 0.0 43.974068 0.206212 115.942725
5381    1 2 0.0 45.237071 3.649664 121.319317
5382    1 2 0.0 44.218360 -0.545905 113.970780
5383    1 2 0.0 48.362313 3.764418 116.874341
5384    1 2 0.0 44.138155 1.873705 117.270239
5385    1 2 0.0 42.511958 -0.584820 116.554083
5386    1 2 0.0 43.302886 3.324001 120.669019
5387    1 2 0.0 45.290602 0.226249 116.213541
5388    1 2 0.0 47.815459 0.854025 114.519747
5389    1 1 0.0 39.111929 5.530922 128.956564
5390    1 1 0.0 41.445112 1.446945 122.563295
5391    1 1 0.0 39.157552 5.215545 126.233536
5392    1 1 0.0 38.700667 2.280134 123.041305
5393    1 2 0.0 40.676133 5.370452 128.417897
5394    1 2 0.0 38.777119 1.493042 121.069360
5395    1 2 0.0 43.752660 4.808946 123.972921
5396    1 2 0.0 39.220282 3.873073 124.368819
5397    1 2 0.0 37.102433 1.822812 123.652663
5398    1 2 0.0 38.717216 5.469306 127.767599
5399    1 2 0.0 39.990579 2.015956 123.312121
5400    1 2 0.0 42.591399 2.084811 121.618327
5401    1 1 0.0 35.100396 8.527612 136.055144
5402    1 1 0.0 36.498552 4.036758 129.661875
5403    1 1 0.0 35.076976 8.209814 133.332116
5404    1 1 0.0 33.998178 5.441859 130.139885
5405    1 2 0.0 36.593254 8.033791 135.516477
5406    1 2 0.0 33.903195 4.656788 128.167940
5407    1 2 0.0 39.476461 6.822415 131.071501
5408    1 2 0.0 34.848897 6.885373 131.467399
5409    1 2 0.0 32.338940 5.339742 130.751243
5410    1 2 0.0 34.701680 8.552514 134.866179
5411    1 2 0.0 35.200838 4.905883 130.410701
5412    1 2 0.0 37.755375 4.412582 128.716907
5413    1 1 0.0 31.828998 12.318457 143.153724
5414    1 1 0.0 32.226410 7.631808 136.760455
5415    1 1 0.0 31.737635 12.013175 140.430696
5416    1 1 0.0 30.087630 9.542777 137.238465
5417    1 2 0.0 33.180342 11.514494 142.615057
5418    1 2 0.0 29.825679 8.796627 135.266520
5419    1 2 0.0 35.734709 9.710188 138.170081
5420    1 2 0.0 31.229468 10.769016 138.565979
5421    1 2 0.0 28.445378 9.800665 137.849823
5422    1 2 0.0 31.445019 12.428706 141.964759
5423    1 2 0.0 31.146511 8.760195 137.509281
5424    1 2 0.0 33.534694 7.727924 135.815487
5425    1 1 0.0 29.451500 16.725275 150.252304
5426    1 1 0.0 28.829487 12.063117 143.859035
5427    1 1 0.0 29.296488 16.446858 147.529276
5428    1 1 0.0 27.152831 14.390134 144.337045
5429    1 2 0.0 30.597812 15.648960 149.713637
5430    1 2 0.0 26.736223 13.717976 142.365100
5431    1 2 0.0 32.703277 13.336531 145.268661
5432    1 2 0.0 28.532118 15.341461 145.664559
5433    1 2 0.0 25.604756 14.995905 144.948403
5434    1 2 0.0 29.100306 16.915690 149.063339
5435    1 2 0.0 28.018162 13.397730 144.607861
5436    1 2 0.0 30.127741 11.875008 142.914067
5437    1 1 0.0 28.079650 21.540934 157.350884
5438    1 1 0.0 26.467450 17.122402 150.957615
5439    1 1 0.0 27.868276 21.302469 154.627856
5440    1 1 0.0 25.331725 19.756090 151.435625
5441    1 2 0.0 28.967050 20.242857 156.812217
5442    1 2 0.0 24.780041 19.189518 149.463680
5443    1 2 0.0 30.524651 17.530996 152.367241
5444    1 2 0.0 26.883630 20.387791 152.763139
5445    1 2 0.0 23.950589 20.681272 152.046983
5446    1 2 0.0 27.777749 21.802564 156.161919
5447    1 2 0.0 25.962832 18.600510 151.706441
5448    1 2 0.0 27.694650 16.658910 150.012647
5449    1 1 0.0 27.777929 26.539085 164.449464
5450    1 1 0.0 25.251319 22.571862 158.056195
5451    1 1 0.0 27.520128 26.351781 161.726436
5452    1 1 0.0 24.709908 25.388430 158.534205
5453    1 2 0.0 28.364708 25.080258 163.910797
5454    1 2 0.0 24.049080 24.954074 156.562260
5455    1 2 0.0 29.301232 22.096430 159.465821
5456    1 2 0.0 26.361488 25.670813 159.861719
5457    1 2 0.0 23.560630 26.589537 159.145563
5458    1 2 0.0 27.539511 26.859633 163.260499
5459    1 2 0.0 25.077128 24.123989 158.805021
5460    1 2 0.0 26.349786 21.854771 157.111227
5461    1 1 0.0 28.560520 31.484800 171.548044
5462    1 1 0.0 25.238258 28.155357 165.154775
5463    1 1 0.0 28.268408 31.357460 168.825016
5464    1 1 0.0 25.316608 31.022419 165.632785
5465    1 2 0.0 28.819097 29.933793 171.009377
5466    1 2 0.0 24.577696 30.740695 163.660840
5467    1 2 0.0 29.090525 26.818245 166.564401
5468    1 2 0.0 26.990233 30.942210 166.960299
5469    1 2 0.0 24.453206 32.442994 166.244143
5470    1 2 0.0 28.396790 31.849200 170.359079
5471    1 2 0.0 25.402681 29.708549 165.903601
5472    1 2 0.0 26.156359 27.218373 164.209807
5473    1 1 0.0 30.390637 36.145617 178.646624
5474    1 1 0.0 26.428879 33.610447 172.253355
5475    1 1 0.0 30.077946 36.084227 175.923596
5476    1 1 0.0 27.123308 36.393242 172.731365
5477    1 2 0.0 30.308859 34.575331 178.107957
5478    1 2 0.0 26.341044 36.277392 170.759420
5479    1 2 0.0 29.902433 31.474504 173.662981
5480    1 2 0.0 28.740314 35.954213 174.058879
5481    1 2 0.0 26.586365 37.966516 173.342723
5482    1 2 0.0 30.309293 36.536741 177.457659
5483    1 2 0.0 26.924188 35.091700 173.002181
5484    1 2 0.0 27.123461 32.497611 171.308387
5485    1 1 0.0 33.182261 40.302465 185.745204
5486    1 1 0.0 28.767221 38.680727 179.351935
5487    1 1 0.0 32.863688 40.309909 183.022176
5488    1 1 0.0 30.045088 41.248457 179.829945
5489    1 2 0.0 32.763971 38.786708 185.206537
5490    1 2 0.0 29.256239 41.303927 177.858000
5491    1 2 0.0 31.698795 35.846349 180.761561
5492    1 2 0.0 31.529471 40.471243 181.157459
5493    1 2 0.0 29.859842 42.900481 180.441303
5494    1 2 0.0 33.187125 40.701928 184.556239
5495    1 2 0.0 29.570134 40.020418 180.100761
5496    1 2 0.0 29.205636 37.444346 178.406967
5497    1 1 0.0 36.804178 43.759959 192.843784
5498    1 1 0.0 32.143374 43.127881 186.450515
5499    1 1 0.0 36.494696 43.835889 190.120756
5500    1 1 0.0 33.944616 45.359855 186.928525
5501    1 2 0.0 36.069036 42.369976 192.305117
5502    1 2 0.0 33.186262 45.584036 184.956580
5503    1 2 0.0 34.395176 39.728291 187.860141
5504    1 2 0.0 35.226606 44.280986 188.256039
5505    1 2 0.0 34.119774 47.012979 187.539883
5506    1 2 0.0 36.895021 44.148986 191.654819
5507    1 2 0.0 33.216153 44.263040 187.199341
5508    1 2 0.0 32.305017 41.826067 185.505547
5509    1 1 0.0 41.086146 46.355588 199.942364
5510    1 1 0.0 36.398650 46.742879 193.549095
5511    1 1 0.0 40.800302 46.496434 197.219336
5512    1 1 0.0 38.638604 48.534188 194.027105
5513    1 2 0.0 40.068707 45.156713 199.403697
5514    1 2 0.0 37.946388 48.916544 192.055160
5515    1 2 0.0 37.864839 42.937867 194.958721
5516    1 2 0.0 39.657943 47.204375 195.354619
5517    1 2 0.0 39.165933 50.110710 194.638463
5518    1 2 0.0 41.258699 46.715894 198.753399
5519    1 2 0.0 37.690871 47.620151 194.297921
5520    1 2 0.0 36.275922 45.436822 192.604127
5521    1 1 0.0 45.826902 47.967351 1.719068
5522    1 1 0.0 41.333039 49.355806 200.647675
5523    1 1 0.0 45.578132 48.166493 204.317916
5524    1 1 0.0 43.906421 50.622254 201.125685
5525    1 2 0.0 44.574988 47.015933 1.180401
5526    1 2 0.0 43.312880 51.144813 199.153740
5527    1 2 0.0 41.944701 45.324219 202.057301
5528    1 2 0.0 44.615198 49.104001 202.453199
5529    1 2 0.0 44.761135 52.048074 201.737043
5530    1 2 0.0 46.073054 48.282000 0.530103
5531    1 2 0.0 42.783964 49.933957 201.396501
5532    1 2 0.0 40.931709 48.106895 199.702707
5533    1 1 0.0 50.803617 48.519489 8.817648
5534    1 1 0.0 46.714611 50.843848 2.424379
5535    1 1 0.0 50.603613 48.767567 6.094620
5536    1 1 0.0 49.500464 51.525908 2.902389
5537    1 2 0.0 49.376071 47.860248 8.278981
5538    1 2 0.0 49.033496 52.164108 0.930444
5539    1 2 0.0 46.442995 46.775181 3.834005
5540    1 2 0.0 49.865364 49.890578 4.229903
5541    1 2 0.0 50.642389 52.734008 3.513747
5542    1 2 0.0 51.111798 48.773692 7.628683
5543    1 2 0.0 48.256042 51.095703 3.173205
5544    1 2 0.0 46.053543 49.710784 1.479411
5545    1 1 0.0 55.782371 47.986051 15.916228
5546    1 1 0.0 52.290417 51.137063 9.522959
5547    1 1 0.0 55.640534 48.271405 13.193200
5548    1 1 0.0 55.157799 51.202675 10.000969
5549    1 2 0.0 54.246293 47.649973 15.377561
5550    1 2 0.0 54.839352 51.926520 8.029024
5551    1 2 0.0 51.148290 47.222555 10.932585
5552    1 2 0.0 55.161671 49.527133 11.328483
5553    1 2 0.0 56.533261 52.136271 10.612327
5554    1 2 0.0 56.138096 48.167859 14.727263
5555    1 2 0.0 53.849903 51.050783 10.271785
5556    1 2 0.0 51.400682 50.173103 8.577991
5557    1 1 0.0 60.529148 46.392110 23.014808
5558    1 1 0.0 57.798378 50.221667 16.621539
5559    1 1 0.0 60.452145 46.701327 20.291780
5560    1 1 0.0 60.612513 49.667749 17.099549
5561    1 2 0.0 58.956737 46.394992 22.476141
5562    1 2 0.0 60.457557 50.443215 15.127604
5563    1 2 0.0 55.839423 46.645311 18.031165
5564    1 2 0.0 60.255175 48.030750 18.427063
5565    1 2 0.0 62.156862 50.282959 17.710907
5566    1 2 0.0 60.915698 46.492978 21.825843
5567    1 2 0.0 59.302619 49.801309 17.370365
5568    1 2 0.0 56.721797 49.472121 15.676571
5569    1 1 0.0 65.418434 58.716348 31.398452
5570    1 1 0.0 58.528407 63.180771 27.315705
5571    1 1 0.0 65.341210 58.670024 27.976583
5572    1 1 0.0 62.213422 61.997813 27.570109
5573    1 2 0.0 63.534032 59.107692 30.680492
5574    1 2 0.0 61.236290 62.585684 25.971008
5575    1 2 0.0 59.359350 59.796150 25.417265
5576    1 2 0.0 63.572457 60.243010 27.282773
5577    1 2 0.0 63.172822 62.567360 29.295424
5578    1 2 0.0 65.877170 58.533354 29.910044
5579    1 2 0.0 60.651860 62.500094 27.907363
5580    1 2 0.0 57.760529 62.441761 25.483040
5581    1 1 0.0 72.251384 54.793429 38.497032
5582    1 1 0.0 66.485472 60.637896 34.414285
5583    1 1 0.0 72.165991 54.764837 35.075163
5584    1 1 0.0 69.828929 58.688532 34.668689
5585    1 2 0.0 70.495612 55.581710 37.779072
5586    1 2 0.0 69.001460 59.473182 33.069588
5587    1 2 0.0 66.567421 57.153731 32.515845
5588    1 2 0.0 70.777823 56.682065 34.381353
5589    1 2 0.0 70.888532 59.037920 36.394004
5590    1 2 0.0 72.659900 54.515868 37.008624
5591    1 2 0.0 68.412319 59.515562 35.005943
5592    1 2 0.0 65.576366 60.081750 32.581620
5593    1 1 0.0 78.078269 49.490042 45.595612
5594    1 1 0.0 73.707485 56.439847 41.512865
5595    1 1 0.0 77.988720 49.480526 42.173743
5596    1 1 0.0 76.552231 53.815700 41.767269
5597    1 2 0.0 76.533653 50.638207 44.877652
5598    1 2 0.0 75.913320 54.760249 40.168168
5599    1 2 0.0 73.036587 53.019902 39.614425
5600    1 2 0.0 77.046384 51.651879 41.479933
5601    1 2 0.0 77.662234 53.928508 43.492584
5602    1 2 0.0 78.417363 49.130958 44.107204
5603    1 2 0.0 75.347158 54.928608 42.104523
5604    1 2 0.0 72.699882 56.092705 39.680200
5605    1 1 0.0 82.625207 43.055459 52.694192
5606    1 1 0.0 79.854991 50.783941 48.611445
5607    1 1 0.0 82.535712 43.065467 49.272323
5608    1 1 0.0 82.067316 47.608356 48.865849
5609    1 2 0.0 81.364349 44.509542 51.976232
5610    1 2 0.0 81.646993 48.668407 47.266748
5611    1 2 0.0 78.462781 47.588965 46.713005
5612    1 2 0.0 82.083500 45.388886 48.578513
5613    1 2 0.0 83.175545 47.479280 50.591164
5614    1 2 0.0 82.878941 42.631732 51.205784
5615    1 2 0.0 81.130422 48.954830 49.203103
5616    1 2 0.0 78.796250 50.662120 46.778780
5617    1 1 0.0 85.678480 35.792125 59.792772
5618    1 1 0.0 84.639040 43.936024 55.710025
5619    1 1 0.0 85.593246 35.821185 56.370903
5620    1 1 0.0 86.114958 40.358261 55.964429
5621    1 2 0.0 84.760644 37.483780 59.074812
5622    1 2 0.0 85.932979 41.483989 54.365328
5623    1 2 0.0 82.590956 41.116189 53.811585
5624    1 2 0.0 85.652413 38.187464 55.677093
5625    1 2 0.0 87.169323 39.993369 57.689744
5626    1 2 0.0 85.834928 35.323670 58.304364
5627    1 2 0.0 85.490280 41.875014 56.301683
5628    1 2 0.0 83.578926 44.045250 53.877360
5629    1 1 0.0 87.094577 28.041436 66.891352
5630    1 1 0.0 87.834768 36.217967 62.808605
5631    1 1 0.0 87.017609 28.088184 63.469483
5632    1 1 0.0 88.504907 32.406190 63.063009
5633    1 2 0.0 86.562902 29.891151 66.173392
5634    1 2 0.0 88.569826 33.544683 61.463908
5635    1 2 0.0 85.227075 33.905812 60.910165
5636    1 2 0.0 87.585375 30.386099 62.775673
5637    1 2 0.0 89.455850 31.822633 64.788324
5638    1 2 0.0 87.146384 27.550273 65.402944
5639    1 2 0.0 88.221806 34.021931 63.400263
5640    1 2 0.0 86.823109 36.553105 60.975940
5641    1 1 0.0 86.806935 20.167697 73.989932
5642    1 1 0.0 89.291968 27.992539 69.907185
5643    1 1 0.0 86.741851 20.229935 70.568063
5644    1 1 0.0 89.124829 24.125914 70.161589
5645    1 2 0.0 86.686413 22.088529 73.271972
5646    1 2 0.0 89.433595 25.223659 68.562488
5647    1 2 0.0 86.247235 26.296743 68.008745
5648    1 2 0.0 87.791529 22.351479 69.874253
5649    1 2 0.0 89.927653 23.351120 71.886904
5650    1 2 0.0 86.751668 19.676911 72.501524
5651    1 2 0.0 89.196612 25.764697 70.498843
5652    1 2 0.0 88.376314 28.537838 68.074520
5653    1 1 0.0 84.829076 12.540996 81.088512
5654    1 1 0.0 88.942146 19.646359 77.005765
5655    1 1 0.0 84.778935 12.615798 77.666643
5656    1 1 0.0 87.945586 15.906627 77.260169
5657    1 2 0.0 85.125371 14.442661 80.370552
5658    1 2 0.0 88.483685 16.912027 75.661068
5659    1 2 0.0 85.603484 18.646629 75.107325
5660    1 2 0.0 86.261187 14.461252 76.972833
5661    1 2 0.0 88.562556 14.977015 78.985484
5662    1 2 0.0 84.669331 12.073655 79.600104
5663    1 2 0.0 88.368878 17.491426 77.597423
5664    1 2 0.0 88.165536 20.376188 75.173100
5665    1 1 0.0 81.253963 5.519808 88.187092
5666    1 1 0.0 86.801745 11.571721 84.104345
5667    1 1 0.0 81.221123 5.603658 84.765223
5668    1 1 0.0 85.022605 8.134661 84.358749
5669    1 2 0.0 81.953150 7.312923 87.469132
5670    1 2 0.0 85.764745 9.000459 82.759648
5671    1 2 0.0 83.326081 11.315047 82.205905
5672    1 2 0.0 83.066279 7.086281 84.071413
5673    1 2 0.0 85.424722 7.093924 86.084064
5674    1 2 0.0 80.997250 5.097879 86.698684
5675    1 2 0.0 85.777511 9.590985 84.696003
5676    1 2 0.0 86.200683 12.451775 82.271680
5677    1 1 0.0 76.249638 -0.565850 95.285672
5678    1 1 0.0 82.971371 4.148156 91.202925
5679    1 1 0.0 76.235641 -0.476892 91.863803
5680    1 1 0.0 80.493275 1.175318 91.457329
5681    1 2 0.0 77.318852 1.034432 94.567712
5682    1 2 0.0 81.404574 1.860820 89.858228
5683    1 2 0.0 79.522070 4.646602 89.304485
5684    1 2 0.0 78.356975 0.573212 91.169993
5685    1 2 0.0 80.661637 0.072374 93.182644
5686    1 2 0.0 75.908023 -0.922535 93.797264
5687    1 2 0.0 81.544311 2.434717 91.794583
5688    1 2 0.0 82.574107 5.137071 89.370260
5689    1 1 0.0 70.051318 -5.429936 102.384252
5690    1 1 0.0 77.631061 -2.275409 98.301505
5691    1 1 0.0 70.056823 -5.340052 98.962383
5692    1 1 0.0 74.570486 -4.644292 98.555909
5693    1 2 0.0 71.440302 -4.097703 101.666292
5694    1 2 0.0 75.608110 -4.171307 96.956808
5695    1 2 0.0 74.370251 -1.045271 96.403065
5696    1 2 0.0 72.354624 -4.771824 98.268573
5697    1 2 0.0 74.497181 -5.757601 100.281224
5698    1 2 0.0 69.640857 -5.704612 100.895844
5699    1 2 0.0 75.868252 -3.641015 98.893163
5700    1 2 0.0 77.456267 -1.224115 96.468840
5701    1 1 0.0 62.950341 -8.843824 109.482832
5702    1 1 0.0 71.031825 -7.397047 105.400085
5703    1 1 0.0 62.975088 -8.757238 106.060963
5704    1 1 0.0 67.532627 -9.050631 105.654489
5705    1 2 0.0 64.593810 -7.842259 108.764872
5706    1 2 0.0 68.647806 -8.812395 104.055388
5707    1 2 0.0 68.112772 -5.493037 103.501645
5708    1 2 0.0 65.341355 -8.697596 105.367153
5709    1 2 0.0 67.221101 -10.121978 107.379804
5710    1 2 0.0 62.490327 -9.023580 107.994424
5711    1 2 0.0 69.016124 -8.350632 105.991743
5712    1 2 0.0 71.087718 -6.332788 103.567420
5713    1 1 0.0 55.280473 -10.647051 116.581412
5714    1 1 0.0 63.483845 -10.976027 112.498665
5715    1 1 0.0 55.323300 -10.567834 113.159543
5716    1 1 0.0 59.710497 -11.836590 112.753069
5717    1 2 0.0 57.101179 -10.023231 115.863452
5718    1 2 0.0 60.850813 -11.844299 111.153968
5719    1 2 0.0 61.043754 -8.487639 110.600225
5720    1 2 0.0 57.646810 -11.019580 112.465733
5721    1 2 0.0 59.175391 -12.815617 114.478384
5722    1 2 0.0 54.792528 -10.723439 115.093004
5723    1 2 0.0 61.309997 -11.472770 113.090323
5724    1 2 0.0 63.767798 -9.948826 110.666000
5725    1 1 0.0 47.402220 -10.754861 123.679992
5726    1 1 0.0 55.341899 -12.844127 119.597245
5727    1 1 0.0 47.461113 -10.686736 120.258123
5728    1 1 0.0 51.471758 -12.871220 119.851649
5729    1 2 0.0 49.314585 -10.538107 122.962032
5730    1 2 0.0 52.583613 -13.124513 118.252548
5731    1 2 0.0 53.495460 -9.888322 117.698805
5732    1 2 0.0 49.632655 -11.628637 119.564313
5733    1 2 0.0 50.738224 -13.711910 121.576964
5734    1 2 0.0 46.909279 -10.724290 122.191584
5735    1 2 0.0 53.112079 -12.860680 120.188903
5736    1 2 0.0 55.840565 -11.902265 117.764580
5737    1 1 0.0 39.685881 -9.162187 130.778572
5738    1 1 0.0 46.988680 -12.913542 126.695825
5739    1 1 0.0 39.758072 -9.108356 127.356703
5740    1 1 0.0 43.203653 -12.105890 126.950229
5741    1 2 0.0 41.600018 -9.362687 130.060612
5742    1 2 0.0 44.234787 -12.592862 125.351128
5743    1 2 0.0 45.822681 -9.629251 124.797385
5744    1 2 0.0 41.675578 -10.496139 126.662893
5745    1 2 0.0 42.306170 -12.768729 128.675544
5746    1 2 0.0 39.211113 -9.026094 129.290164
5747    1 2 0.0 44.807696 -12.449127 127.287483
5748    1 2 0.0 47.678620 -12.101289 124.863160
5749    1 1 0.0 32.494145 -5.943888 137.877152
5750    1 1 0.0 38.816812 -11.181008 133.794405
5751    1 1 0.0 32.576242 -5.906881 134.455283
5752    1 1 0.0 35.294807 -9.576574 134.048809
5753    1 2 0.0 34.320085 -6.552218 137.159192
5754    1 2 0.0 36.196754 -10.274335 132.449708
5755    1 2 0.0 38.386059 -7.722602 131.895965
5756    1 2 0.0 34.149584 -7.675318 133.761473
5757    1 2 0.0 34.275559 -10.030406 135.774124
5758    1 2 0.0 32.059867 -5.708670 136.388744
5759    1 2 0.0 36.787177 -10.257453 134.386063
5760    1 2 0.0 39.665597 -10.536543 131.961740
5761    1 1 0.0 26.165046 -1.251234 144.975732
5762    1 1 0.0 31.210397 -7.727959 140.892985
5763    1 1 0.0 26.253189 -1.232791 141.553863
5764    1 1 0.0 28.116958 -5.402156 141.147389
5765    1 2 0.0 27.816963 -2.238801 144.257772
5766    1 2 0.0 28.847324 -6.277910 139.548288
5767    1 2 0.0 31.535136 -4.257993 138.994545
5768    1 2 0.0 27.408415 -3.298760 140.860053
5769    1 2 0.0 27.023852 -5.625650 142.872704
5770    1 2 0.0 25.791668 -0.927946 143.487324
5771    1 2 0.0 29.427509 -6.388675 141.484643
5772    1 2 0.0 32.178132 -7.281573 139.060320
5773    1 1 0.0 20.996067 4.695207 152.074312
5774    1 1 0.0 24.526958 -2.716699 147.991565
5775    1 1 0.0 21.086114 4.694220 148.652443
5776    1 1 0.0 22.007485 0.221155 148.245969
5777    1 2 0.0 22.396318 3.374822 151.356352
5778    1 2 0.0 22.531940 -0.791429 146.646868
5779    1 2 0.0 25.591925 0.601730 146.093125
5780    1 2 0.0 21.768925 2.427826 147.958633
5781    1 2 0.0 20.891900 0.238503 149.971284
5782    1 2 0.0 20.701141 5.091369 150.585904
5783    1 2 0.0 23.074618 -1.024635 148.583223
5784    1 2 0.0 25.568157 -2.489374 146.158900
5785    1 1 0.0 17.230166 11.615937 159.172892
5786    1 1 0.0 19.080634 3.617230 155.090145
5787    1 1 0.0 17.317884 11.595565 155.751023
5788    1 1 0.0 17.253549 7.029046 155.344549
5789    1 2 0.0 18.312935 10.024795 158.454932
5790    1 2 0.0 17.547444 5.927227 153.745448
5791    1 2 0.0 20.835773 6.628145 153.191705
5792    1 2 0.0 17.496187 9.235273 155.057213
5793    1 2 0.0 16.167921 7.286422 157.069864
5794    1 2 0.0 17.027553 12.066352 157.684484
5795    1 2 0.0 18.027106 5.582542 155.681803
5796    1 2 0.0 20.146357 3.614810 153.257480
5797    1 1 0.0 15.044351 19.185660 166.271472
5798    1 1 0.0 15.127419 10.976115 162.188725
5799    1 1 0.0 15.125617 19.146862 162.849603
5800    1 1 0.0 14.078601 14.701528 162.443129
5801    1 2 0.0 15.758745 17.398550 165.553512
5802    1 2 0.0 14.128120 13.562262 160.844028
5803    1 2 0.0 17.490233 13.537995 160.290285
5804    1 2 0.0 14.791030 16.803611 162.155793
5805    1 2 0.0 13.073957 15.186834 164.168444
5806    1 2 0.0 14.943575 19.669158 164.783064
5807    1 2 0.0 14.522222 13.122299 162.780383
5808    1 2 0.0 16.167574 10.744062 160.356060
5809    1 1 0.0 14.541361 27.048580 173.370052
5810    1 1 0.0 12.853124 19.014067 169.287305
5811    1 1 0.0 14.612355 26.993179 169.948183
5812    1 1 0.0 12.631870 22.877973 169.541709
5813    1 2 0.0 14.853800 25.149500 172.652092
5814    1 2 0.0 12.434686 21.754809 167.942608
5815    1 2 0.0 15.712555 21.006497 167.388865
5816    1 2 0.0 13.780605 24.777109 169.254373
5817    1 2 0.0 11.755431 23.568398 171.267024
5818    1 2 0.0 14.547158 27.542434 171.881644
5819    1 2 0.0 12.724704 21.240248 169.878963
5820    1 2 0.0 13.818822 18.563290 167.454640
5821    1 1 0.0 15.744837 34.835116 180.468632
5822    1 1 0.0 12.364649 27.353280 176.385885
5823    1 1 0.0 15.802223 34.765716 177.046763
5824    1 1 0.0 12.981357 31.174065 176.640289
5825    1 2 0.0 15.640637 32.913329 179.750672
5826    1 2 0.0 12.546739 30.119795 175.041188
5827    1 2 0.0 15.586295 28.682610 174.487445
5828    1 2 0.0 14.512404 32.780989 176.352953
5829    1 2 0.0 12.274320 32.037158 178.365604
5830    1 2 0.0 15.856936 35.316114 178.980224
5831    1 2 0.0 12.719041 29.554820 176.977543
5832    1 2 0.0 13.210498 26.704967 174.553220
5833    1 1 0.0 18.598214 42.179280 187.567212
5834    1 1 0.0 13.684951 35.601789 183.484465
5835    1 1 0.0 18.639294 42.099143 184.145343
5836    1 1 0.0 15.110637 39.199865 183.738869
5837    1 2 0.0 18.082272 40.325116 186.849252
5838    1 2 0.0 14.459012 38.264041 182.139768
5839    1 2 0.0 17.117386 36.205536 181.586025
5840    1 2 0.0 16.952032 40.439047 183.451533
5841    1 2 0.0 14.606232 40.195057 185.464184
5842    1 2 0.0 18.811345 42.624814 186.078804
5843    1 2 0.0 14.505499 37.675210 184.076123
5844    1 2 0.0 14.371195 34.786411 181.651800
5845    1 1 0.0 22.967374 48.735875 194.665792
5846    1 1 0.0 16.751975 43.371889 190.583045
5847    1 1 0.0 22.990217 48.648768 191.243923
5848    1 1 0.0 18.919625 46.578136 190.837449
5849    1 2 0.0 22.063942 47.036484 193.947832
5850    1 2 0.0 18.081623 45.804746 189.238348
5851    1 2 0.0 20.233864 43.221676 188.684605
5852    1 2 0.0 20.984818 47.391331 190.550113
5853    1 2 0.0 18.641562 47.658651 192.562764
5854    1 2 0.0 23.271520 49.125004 193.177384
5855    1 2 0.0 18.000110 45.219734 191.174703
5856    1 2 0.0 17.246357 42.427772 188.750380
5857    1 1 0.0 28.646955 54.196723 201.764372
5858    1 1 0.0 21.421560 50.298365 197.681625
5859    1 1 0.0 28.650488 54.106740 198.342503
5860    1 1 0.0 24.229290 52.962080 197.936029
5861    1 2 0.0 27.398495 52.731982 201.046412
5862    1 2 0.0 23.244298 52.387476 196.336928
5863    1 2 0.0 24.789246 49.401252 195.783185
5864    1 2 0.0 26.421211 53.311066 197.648693
5865    1 2 0.0 24.190638 54.077131 199.661344
5866    1 2 0.0 29.027819 54.511157 200.275964
5867    1 2 0.0 23.038617 51.833780 198.273283
5868    1 2 0.0 21.700844 49.269885 195.848960
5869    1 1 0.0 35.370001 58.305149 3.541076
5870    1 1 0.0 27.474223 56.055653 204.780205
5871    1 1 0.0 35.354057 58.216520 0.119207
5872    1 1 0.0 30.790061 58.051634 205.034609
5873    1 2 0.0 33.835195 57.143904 2.823116
5874    1 2 0.0 29.704377 57.702823 203.435508
5875    1 2 0.0 30.569415 54.453807 202.881765
5876    1 2 0.0 33.005684 57.920007 204.747273
5877    1 2 0.0 30.992638 59.148810 1.438048
5878    1 2 0.0 35.809682 58.530108 2.052668
5879    1 2 0.0 29.384195 57.206469 0.049987
5880    1 2 0.0 27.525282 54.991151 202.947540
5881    1 1 0.0 42.820508 60.868046 10.639656
5882    1 1 0.0 34.625473 60.373143 6.556909
5883    1 1 0.0 42.785837 60.784935 7.217787
5884    1 1 0.0 38.293566 61.607574 6.811313
5885    1 2 0.0 41.071496 60.064878 9.921696
5886    1 2 0.0 37.158219 61.500951 5.212212
5887    1 2 0.0 37.302687 58.141855 4.658469
5888    1 2 0.0 40.428749 61.001521 6.523977
5889    1 2 0.0 38.727849 62.635304 8.536628
5890    1 2 0.0 43.298340 60.992956 9.151248
5891    1 2 0.0 36.738586 61.085269 7.148567
5892    1 2 0.0 34.445906 59.322654 4.724244
5893    1 1 0.0 50.648284 61.764949 17.738236
5894    1 1 0.0 42.539180 63.047902 13.655489
5895    1 1 0.0 50.596515 61.691264 14.316367
5896    1 1 0.0 46.387116 63.462761 13.909893
5897    1 2 0.0 48.767274 61.357611 17.020276
5898    1 2 0.0 45.255473 63.603338 12.310792
5899    1 2 0.0 44.672580 60.292049 11.757049
5900    1 2 0.0 48.341502 62.410768 13.622557
5901    1 2 0.0 47.032694 64.372740 15.635208
5902    1 2 0.0 51.141807 61.783939 16.249828
5903    1 2 0.0 44.756112 63.287866 14.247147
5904    1 2 0.0 42.137428 62.060802 11.822824
5905    1 1 0.0 58.485399 60.953702 24.836816
5906    1 1 0.0 50.843377 63.954208 20.754069
5907    1 1 0.0 58.418967 60.892906 21.414947
5908    1 1 0.0 54.690294 63.529996 21.008473
5909    1 2 0.0 56.560805 60.961339 24.118856
5910    1 2 0.0 53.615543 63.911165 19.409372
5911    1 2 0.0 52.332689 60.803324 18.855629
5912    1 2 0.0 56.372019 62.081510 20.721137
5913    1 2 0.0 55.516822 64.279452 22.733788
5914    1 2 0.0 58.971417 60.865880 23.348408
5915    1 2 0.0 53.059927 63.710731 21.345727
5916    1 2 0.0 50.238324 63.076893 18.921404
5917    1 1 0.0 65.430108 53.670246 30.491004
5918    1 1 0.0 60.092534 58.164599 25.752944
5919    1 1 0.0 65.707516 53.691114 27.005615
5920    1 1 0.0 63.714597 56.952508 25.823447
5921    1 2 0.0 63.577828 54.067404 29.913124
5922    1 2 0.0 63.195527 57.617600 23.986506
5923    1 2 0.0 59.980150 54.832670 24.769064
5924    1 2 0.0 64.443808 55.238732 26.026927
5925    1 2 0.0 64.977352 57.412196 27.104222
5926    1 2 0.0 66.054465 53.513730 28.934292
5927    1 2 0.0 62.082419 57.449345 26.294908
5928    1 2 0.0 59.209906 57.494946 24.190916
5929    1 1 0.0 71.175229 49.863401 37.589584
5930    1 1 0.0 66.931736 55.402506 32.851524
5931    1 1 0.0 71.450615 49.823992 34.104195
5932    1 1 0.0 70.207441 53.438260 32.922027
5933    1 2 0.0 69.452078 50.650437 37.011704
5934    1 2 0.0 69.843913 54.199593 31.085086
5935    1 2 0.0 66.103883 52.173102 31.867644
5936    1 2 0.0 70.550155 51.607597 33.125507
5937    1 2 0.0 71.539593 53.614990 34.202802
5938    1 2 0.0 71.751180 49.576000 36.032872
5939    1 2 0.0 68.720702 54.275193 33.393488
5940    1 2 0.0 65.925525 54.938817 31.289496
5941    1 1 0.0 75.964866 44.907813 44.688164
5942    1 1 0.0 73.014910 51.231314 39.950104
5943    1 1 0.0 76.225287 44.809978 41.202775
5944    1 1 0.0 75.790289 48.607239 40.020607
5945    1 2 0.0 74.451836 46.047732 44.110284
5946    1 2 0.0 75.599390 49.429029 38.183666
5947    1 2 0.0 71.510499 48.256229 38.966224
5948    1 2 0.0 75.730398 46.745736 40.224087
5949    1 2 0.0 77.129224 48.492706 41.301382
5950    1 2 0.0 76.465340 44.503035 43.131452
5951    1 2 0.0 74.518870 49.744930 40.492068
5952    1 2 0.0 71.932410 50.995386 38.388076
5953    1 1 0.0 79.573893 39.036408 51.786744
5954    1 1 0.0 78.056130 45.847083 47.048684
5955    1 1 0.0 79.807108 38.884745 48.301355
5956    1 1 0.0 80.200733 42.686517 47.119187
5957    1 2 0.0 78.342101 40.475631 51.208864
5958    1 2 0.0 80.191436 43.530137 45.282246
5959    1 2 0.0 75.945873 43.266152 46.064804
5960    1 2 0.0 79.741052 40.881670 47.322667
5961    1 2 0.0 81.483517 42.286103 48.399962
5962    1 2 0.0 79.975366 38.533279 50.230032
5963    1 2 0.0 79.204394 44.071492 47.590648
5964    1 2 0.0 76.948222 45.850004 45.486656
5965    1 1 0.0 81.832676 32.525157 58.885324
5966    1 1 0.0 81.818444 39.502887 54.147264
5967    1 1 0.0 82.027722 32.326795 55.399935
5968    1 1 0.0 83.231470 35.954385 54.217767
5969    1 2 0.0 80.940020 34.196037 58.307444
5970    1 2 0.0 83.404211 36.780183 52.380826
5971    1 2 0.0 79.201530 37.437422 53.163384
5972    1 2 0.0 82.393604 34.291027 54.421247
5973    1 2 0.0 84.397807 35.286911 55.498542
5974    1 2 0.0 82.116277 31.947326 57.328612
5975    1 2 0.0 82.557040 37.521547 54.689228
5976    1 2 0.0 80.737204 39.744519 52.585236
5977    1 1 0.0 82.635045 25.680109 65.983904
5978    1 1 0.0 84.125014 32.496920 61.245844
5979    1 1 0.0 82.782756 25.444372 62.498515
5980    1 1 0.0 84.740045 28.727272 61.316347
5981    1 2 0.0 82.123481 27.504110 65.406024
5982    1 2 0.0 85.086705 29.496432 59.479406
5983    1 2 0.0 81.124444 31.044003 60.261964
5984    1 2 0.0 83.563377 27.283585 61.519827
5985    1 2 0.0 85.735115 27.824111 62.597122
5986    1 2 0.0 82.787444 25.054735 64.427192
5987    1 2 0.0 84.419226 30.402959 61.787808
5988    1 2 0.0 83.121262 32.965906 59.683816
5989    1 1 0.0 81.943287 18.823000 73.082484
5990    1 1 0.0 84.867424 25.158482 68.344424
5991    1 1 0.0 82.036719 18.560967 69.597095
5992    1 1 0.0 84.655552 21.344873 68.414927
5993    1 2 0.0 81.836861 20.714388 72.504604
5994    1 2 0.0 85.159838 22.021243 66.577986
5995    1 2 0.0 81.624234 24.386405 67.360544
5996    1 2 0.0 83.195388 20.188714 68.618407
5997    1 2 0.0 85.432585 20.248476 69.695702
5998    1 2 0.0 81.957321 18.179477 71.525772
5999    1 2 0.0 84.703423 23.050322 68.886388
6000    1 2 0.0 83.988339 25.832779 66.782396
6001    1 1 0.0 79.789916 12.276132 80.181064
6002    1 1 0.0 84.010778 17.832500 75.443004
6003    1 1 0.0 79.824678 12.000121 76.695675
6004    1 1 0.0 82.981963 14.154180 75.513507
6005    1 2 0.0 80.093630 14.146007 79.603184
6006    1 2 0.0 83.620171 14.705969 73.676566
6007    1 2 0.0 80.677407 17.777553 74.459124
6008    1 2 0.0 81.306935 13.339893 75.716987
6009    1 2 0.0 83.504434 12.916081 76.794282
6010    1 2 0.0 79.664926 11.644708 78.624352
6011    1 2 0.0 83.396274 15.809232 75.984968
6012    1 2 0.0 83.297680 18.680414 73.880976
6013    1 1 0.0 76.276146 6.347228 87.279644
6014    1 1 0.0 81.595342 10.863318 82.541584
6015    1 1 0.0 76.250605 6.070212 83.794255
6016    1 1 0.0 79.797940 7.493177 82.612087
6017    1 2 0.0 76.975726 8.107701 86.701764
6018    1 2 0.0 80.540073 7.894449 80.775146
6019    1 2 0.0 78.328467 11.528082 81.557704
6020    1 2 0.0 77.986779 7.059035 82.815567
6021    1 2 0.0 80.041293 6.171570 83.892862
6022    1 2 0.0 76.018007 5.757582 85.722932
6023    1 2 0.0 80.559217 9.020039 83.083548
6024    1 2 0.0 81.081749 11.844994 80.979556
6025    1 1 0.0 71.567136 1.314962 94.378224
6026    1 1 0.0 77.734648 4.578504 89.640164
6027    1 1 0.0 71.482491 1.049961 90.892835
6028    1 1 0.0 75.253141 1.674950 89.710667
6029    1 2 0.0 72.629698 2.883285 93.800344
6030    1 2 0.0 76.064317 1.906844 87.873726
6031    1 2 0.0 74.687821 5.931735 88.656284
6032    1 2 0.0 73.390978 1.641359 89.914147
6033    1 2 0.0 75.205937 0.331954 90.991442
6034    1 2 0.0 71.187981 0.794808 92.821512
6035    1 2 0.0 76.325602 3.001855 90.182128
6036    1 2 0.0 77.444699 5.647801 88.078136
6037    1 1 0.0 65.884221 -2.584135 101.476804
6038    1 1 0.0 72.610158 -0.726536 96.738744
6039    1 1 0.0 65.744451 -2.824665 97.991415
6040    1 1 0.0 69.561186 -3.027029 96.809247
6041    1 2 0.0 67.259822 -1.281677 100.898924
6042    1 2 0.0 70.403276 -2.975412 94.972306
6043    1 2 0.0 69.926590 1.251556 95.754864
6044    1 2 0.0 67.735546 -2.658490 97.012727
6045    1 2 0.0 69.225644 -4.328289 98.090022
6046    1 2 0.0 65.401871 -3.010347 99.920092
6047    1 2 0.0 70.894422 -1.962449 97.280708
6048    1 2 0.0 72.557483 0.380122 95.176716
6049    1 1 0.0 59.494514 -5.166794 108.575384
6050    1 1 0.0 66.462740 -4.802451 103.837324
6051    1 1 0.0 59.306189 -5.371548 105.089995
6052    1 1 0.0 62.989611 -6.391753 103.907827
6053    1 2 0.0 61.118497 -4.191421 107.997504
6054    1 2 0.0 63.823036 -6.522840 102.070886
6055    1 2 0.0 64.268565 -2.292474 102.853444
6056    1 2 0.0 61.286306 -5.638407 104.111307
6057    1 2 0.0 62.381503 -7.590114 105.188602
6058    1 2 0.0 58.931641 -5.479032 107.018672
6059    1 2 0.0 64.520957 -5.639537 104.379288
6060    1 2 0.0 66.649813 -3.710448 102.275296
6061    1 1 0.0 52.698350 -6.311624 115.673964
6062    1 1 0.0 59.581337 -7.457662 110.935904
6063    1 1 0.0 52.470322 -6.470978 112.188575
6064    1 1 0.0 55.847299 -8.261071 111.006407
6065    1 2 0.0 54.494384 -5.709180 115.096084
6066    1 2 0.0 56.632886 -8.568700 109.169466
6067    1 2 0.0 57.979688 -4.533776 109.952024
6068    1 2 0.0 54.346388 -7.158327 111.209887
6069    1 2 0.0 54.995207 -9.300207 112.287182
6070    1 2 0.0 52.081411 -6.495212 114.117252
6071    1 2 0.0 57.504777 -7.856574 111.477868
6072    1 2 0.0 59.999366 -6.431641 109.373876
6073    1 1 0.0 45.815168 -5.964814 122.772544
6074    1 1 0.0 52.289396 -8.567365 118.034484
6075    1 1 0.0 45.558154 -6.071277 119.287155
6076    1 1 0.0 48.469960 -8.547120 118.104987
6077    1 2 0.0 47.698833 -5.763616 122.194664
6078    1 2 0.0 49.170782 -9.016831 116.268046
6079    1 2 0.0 51.355555 -5.367002 117.050604
6080    1 2 0.0 47.241990 -7.146809 118.308467
6081    1 2 0.0 47.413935 -9.378189 119.385762
6082    1 2 0.0 45.173159 -6.011122 121.215832
6083    1 2 0.0 50.175663 -8.509355 118.576448
6084    1 2 0.0 52.918733 -7.655553 116.472456
6085    1 1 0.0 39.168495 -4.142665 129.871124
6086    1 1 0.0 44.929659 -8.079403 125.133064
6087    1 1 0.0 38.894576 -4.191233 126.385735
6088    1 1 0.0 41.204348 -7.236454 125.203567
6089    1 2 0.0 41.051254 -4.352170 129.293244
6090    1 2 0.0 41.787466 -7.846170 123.366626
6091    1 2 0.0 44.707519 -4.752987 124.149184
6092    1 2 0.0 40.307037 -5.604396 125.407047
6093    1 2 0.0 39.994026 -7.820393 126.484342
6094    1 2 0.0 38.531595 -4.049517 128.314412
6095    1 2 0.0 42.878104 -7.567196 125.675028
6096    1 2 0.0 45.740723 -7.324656 123.571036
6097    1 1 0.0 33.070746 -0.930823 136.969704
6098    1 1 0.0 37.848053 -6.016710 132.231644
6099    1 1 0.0 32.792796 -0.919214 133.484315
6100    1 1 0.0 34.391968 -4.390678 132.302147
6101    1 2 0.0 34.864104 -1.541184 136.391824
6102    1 2 0.0 34.829973 -5.111742 130.465206
6103    1 2 0.0 38.348055 -2.720593 131.247764
6104    1 2 0.0 33.867492 -2.603584 132.505627
6105    1 2 0.0 33.084237 -4.700041 133.582922
6106    1 2 0.0 32.468889 -0.702597 135.412992
6107    1 2 0.0 35.955106 -5.074382 132.773608
6108    1 2 0.0 38.802722 -5.454504 130.669616
6109    1 1 0.0 27.808530 3.519746 144.068284
6110    1 1 0.0 31.377434 -2.476239 139.330224
6111    1 1 0.0 27.539615 3.590987 140.582895
6112    1 1 0.0 28.353020 -0.143553 139.400727
6113    1 2 0.0 29.428194 2.537218 143.490404
6114    1 2 0.0 28.625326 -0.942071 137.563786
6115    1 2 0.0 32.576077 0.634652 138.346344
6116    1 2 0.0 28.226032 1.714579 139.604207
6117    1 2 0.0 27.009348 -0.163798 140.681502
6118    1 2 0.0 27.270005 3.872323 142.511572
6119    1 2 0.0 29.732068 -1.148081 139.872188
6120    1 2 0.0 32.430836 -2.133000 137.768196
6121    1 1 0.0 23.629186 8.999852 151.166864
6122    1 1 0.0 25.821940 2.375598 146.428804
6123    1 1 0.0 23.381945 9.127377 147.681475
6124    1 1 0.0 23.371353 5.305296 146.499307
6125    1 2 0.0 24.999029 7.691339 150.588984
6126    1 2 0.0 23.465160 4.466856 144.662366
6127    1 2 0.0 27.662883 5.155043 145.444924
6128    1 2 0.0 23.647820 7.147128 146.702787
6129    1 2 0.0 22.054896 5.575120 147.780082
6130    1 2 0.0 23.179307 9.460208 149.610152
6131    1 2 0.0 24.501491 4.027158 146.970768
6132    1 2 0.0 26.924561 2.483738 144.866776
6133    1 1 0.0 20.729157 15.251917 158.265444
6134    1 1 0.0 21.442693 8.310751 153.527384
6135    1 1 0.0 20.515211 15.429730 154.780055
6136    1 1 0.0 19.681118 11.699757 153.597887
6137    1 2 0.0 21.784790 13.678922 157.687564
6138    1 2 0.0 19.592016 10.860804 151.760946
6139    1 2 0.0 23.839409 10.628108 152.543504
6140    1 2 0.0 20.348047 13.438718 153.801367
6141    1 2 0.0 18.453753 12.246968 154.878662
6142    1 2 0.0 20.389068 15.798413 156.708732
6143    1 2 0.0 20.509227 10.208085 154.069348
6144    1 2 0.0 22.542708 8.178709 151.965356
6145    1 1 0.0 19.244750 21.982074 165.364024
6146    1 1 0.0 18.445532 15.050252 160.625964
6147    1 1 0.0 19.074156 22.201819 161.878635
6148    1 1 0.0 17.455767 18.739272 160.696467
6149    1 2 0.0 19.936557 20.218533 164.786144
6150    1 2 0.0 17.187945 17.939239 158.859526
6151    1 2 0.0 21.285366 16.796598 159.642084
6152    1 2 0.0 18.481810 20.293626 160.899947
6153    1 2 0.0 16.375184 19.538149 161.977242
6154    1 2 0.0 19.030437 22.589024 163.807312
6155    1 2 0.0 17.942924 17.104179 161.167928
6156    1 2 0.0 19.491236 14.684233 159.063936
6157    1 1 0.0 19.245738 28.873988 172.462604
6158    1 1 0.0 16.971330 22.277324 167.724544
6159    1 1 0.0 19.126513 29.125336 168.977215
6160    1 1 0.0 16.799898 26.092965 167.795047
6161    1 2 0.0 19.541202 27.002792 171.884724
6162    1 2 0.0 16.365944 25.369456 165.958106
6163    1 2 0.0 20.120804 23.370577 166.740664
6164    1 2 0.0 18.136827 27.389653 167.998527
6165    1 2 0.0 15.916887 27.105958 169.075822
6166    1 2 0.0 19.167274 29.512864 170.905892
6167    1 2 0.0 16.923205 24.391305 168.266508
6168    1 2 0.0 17.913573 21.694533 166.162516
6169    1 1 0.0 20.732075 35.603719 179.561184
6170    1 1 0.0 17.089380 29.652275 174.823124
6171    1 1 0.0 20.669823 35.874857 176.075795
6172    1 1 0.0 17.744338 33.415191 174.893627
6173    1 2 0.0 20.617307 33.712820 178.983304
6174    1 2 0.0 17.164650 32.802213 173.056686
6175    1 2 0.0 20.400459 30.041049 173.839244
6176    1 2 0.0 19.329315 34.393265 175.097107
6177    1 2 0.0 17.100403 34.594688 176.174402
6178    1 2 0.0 20.793147 36.244492 178.004472
6179    1 2 0.0 17.497999 31.726947 175.365088
6180    1 2 0.0 17.883874 28.880105 173.261096
6181    1 1 0.0 23.633897 41.854952 186.659764
6182    1 1 0.0 18.794133 36.828462 181.921704
6183    1 1 0.0 23.631544 42.133134 183.174375
6184    1 1 0.0 20.244696 40.361785 181.992207
6185    1 2 0.0 23.114292 40.033226 186.081884
6186    1 2 0.0 19.546520 39.888150 180.155266
6187    1 2 0.0 22.111187 36.494483 180.937824
6188    1 2 0.0 22.003222 40.975273 182.195687
6189    1 2 0.0 19.870104 41.652345 183.272982
6190    1 2 0.0 23.831636 42.467503 185.103052
6191    1 2 0.0 19.640290 38.766310 182.463668
6192    1 2 0.0 19.403534 35.903207 180.359676
6193    1 1 0.0 27.814811 47.333860 193.758344
6194    1 1 0.0 22.005461 43.468584 189.020284
6195    1 1 0.0 27.872469 47.606011 190.272955
6196    1 1 0.0 24.183449 46.606238 189.090787
6197    1 2 0.0 26.914793 45.666935 193.180464
6198    1 2 0.0 23.399601 46.294207 187.253846
6199    1 2 0.0 25.172579 42.427550 188.036404
6200    1 2 0.0 26.032868 46.826304 189.294267
6201    1 2 0.0 24.095806 47.947202 190.371562
6202    1 2 0.0 28.139922 47.889398 192.201632
6203    1 2 0.0 23.249384 45.178522 189.562248
6204    1 2 0.0 22.401125 42.433733 187.458256
6205    1 1 0.0 33.078303 51.782920 200.856924
6206    1 1 0.0 26.572422 49.260536 196.118864
6207    1 1 0.0 33.193261 52.036249 197.371535
6208    1 1 0.0 29.375463 51.855043 196.189367
6209    1 2 0.0 31.840174 50.349145 200.279044
6210    1 2 0.0 28.542786 51.719283 194.352426
6211    1 2 0.0 29.440740 47.561379 195.134984
6212    1 2 0.0 31.228847 51.671343 196.392847
6213    1 2 0.0 29.578890 53.183381 197.470142
6214    1 2 0.0 33.515505 52.255332 199.300212
6215    1 2 0.0 28.155643 50.662194 196.660828
6216    1 2 0.0 26.735752 48.164731 194.556836
6217    1 1 0.0 39.176973 54.993013 2.633628
6218    1 1 0.0 32.280356 53.932081 203.217444
6219    1 1 0.0 39.343828 55.215612 204.470115
6220    1 1 0.0 35.576699 55.861491 203.287947
6221    1 2 0.0 37.658930 53.859780 2.055748
6222    1 2 0.0 34.734332 55.908383 201.451006
6223    1 2 0.0 34.715056 51.654666 202.233564
6224    1 2 0.0 37.346935 55.282660 203.491427
6225    1 2 0.0 36.061634 57.114768 204.568722
6226    1 2 0.0 39.705717 55.360096 1.076916
6227    1 2 0.0 34.128460 54.959576 203.759408
6228    1 2 0.0 32.203676 52.826827 201.655416
6229    1 1 0.0 45.824168 56.813256 9.732208
6230    1 1 0.0 38.860974 57.263642 4.994148
6231    1 1 0.0 46.035076 56.994663 6.246819
6232    1 1 0.0 42.495683 58.437268 5.064651
6233    1 2 0.0 44.097562 56.033830 9.154328
6234    1 2 0.0 41.683219 58.664609 3.227710
6235    1 2 0.0 40.747619 54.515014 4.010268
6236    1 2 0.0 44.099564 57.490513 5.268131
6237    1 2 0.0 43.239332 59.556577 6.345426
6238    1 2 0.0 46.419600 57.057755 8.175496
6239    1 2 0.0 40.887095 57.868679 5.536112
6240    1 2 0.0 38.547888 56.200889 3.432120
6241    1 1 0.0 52.707450 57.158093 16.830788
6242    1 1 0.0 46.004970 59.098628 12.092728
6243    1 1 0.0 52.952499 57.289780 13.345399
6244    1 1 0.0 49.807202 59.461306 12.163231
6245    1 2 0.0 50.853436 56.769109 16.252908
6246    1 2 0.0 49.062829 59.858409 10.326290
6247    1 2 0.0 47.254881 56.007979 11.108848
6248    1 2 0.0 51.169341 58.191126 12.366711
6249    1 2 0.0 50.774612 60.394035 13.444006
6250    1 2 0.0 53.341583 57.268516 15.274076
6251    1 2 0.0 48.113873 59.252768 12.634692
6252    1 2 0.0 45.470193 58.128328 10.530700
6253    1 1 0.0 59.503285 56.011314 23.929368
6254    1 1 0.0 53.376554 59.350788 19.191308
6255    1 1 0.0 59.770957 56.087093 20.443979
6256    1 1 0.0 57.167594 58.885471 19.261811
6257    1 2 0.0 57.609008 56.031056 23.351488
6258    1 2 0.0 56.526301 59.433671 17.424870
6259    1 2 0.0 53.930982 56.063388 18.207428
6260    1 2 0.0 58.223968 57.351569 19.465291
6261    1 2 0.0 58.313294 59.587780 20.542586
6262    1 2 0.0 60.146315 55.982471 22.372656
6263    1 2 0.0 55.469117 59.046787 19.733272
6264    1 2 0.0 52.645223 58.518549 17.629280
6265    1 1 0.0 64.197871 48.877328 30.715244
6266    1 1 0.0 60.252225 53.201648 25.443141
6267    1 1 0.0 64.560773 48.935450 27.398137
6268    1 1 0.0 63.560196 52.060252 25.559030
6269    1 2 0.0 62.486330 49.213734 30.171457
6270    1 2 0.0 63.333540 52.748520 23.628028
6271    1 2 0.0 59.384533 49.895278 25.205552
6272    1 2 0.0 63.778360 50.402030 26.149264
6273    1 2 0.0 64.942446 52.497625 26.566851
6274    1 2 0.0 64.827615 48.755954 29.231919
6275    1 2 0.0 62.018213 52.512043 26.018874
6276    1 2 0.0 59.322999 52.548132 24.090094
6277    1 1 0.0 68.938964 45.448701 37.813824
6278    1 1 0.0 66.018039 50.521773 32.541721
6279    1 1 0.0 69.305864 45.427242 34.496717
6280    1 1 0.0 69.002271 48.694256 32.657610
6281    1 2 0.0 67.340149 46.146078 37.270037
6282    1 2 0.0 68.929280 49.415197 30.726608
6283    1 2 0.0 64.458139 47.480116 32.304132
6284    1 2 0.0 68.857921 47.027985 33.247844
6285    1 2 0.0 70.446300 48.823442 33.665431
6286    1 2 0.0 69.527750 45.194454 36.330499
6287    1 2 0.0 67.593899 49.467762 33.117454
6288    1 2 0.0 64.969804 50.083886 31.188674
6289    1 1 0.0 72.829684 41.078833 44.912404
6290    1 1 0.0 71.070773 46.662209 39.640301
6291    1 1 0.0 73.183336 40.978803 41.595297
6292    1 1 0.0 73.590997 44.234468 39.756190
6293    1 2 0.0 71.418745 42.104403 44.368617
6294    1 2 0.0 73.675102 44.954198 37.825188
6295    1 2 0.0 68.891983 44.028231 39.402712
6296    1 2 0.0 73.090919 42.638468 40.346424
6297    1 2 0.0 75.028932 44.049395 40.764011
6298    1 2 0.0 73.349836 40.703664 43.429079
6299    1 2 0.0 72.382433 45.293334 40.216034
6300    1 2 0.0 69.952797 46.460532 38.287254
6301    1 1 0.0 75.687156 35.973120 52.010984
6302    1 1 0.0 75.172932 41.804366 46.738881
6303    1 1 0.0 76.010938 35.799221 48.693877
6304    1 1 0.0 77.110692 38.890513 46.854770
6305    1 2 0.0 74.530411 37.278679 51.467197
6306    1 2 0.0 77.347939 39.575201 44.923768
6307    1 2 0.0 72.477662 39.701871 46.501292
6308    1 2 0.0 76.278390 37.439799 47.445004
6309    1 2 0.0 78.474946 38.399880 47.862591
6310    1 2 0.0 76.114226 35.494663 50.527659
6311    1 2 0.0 76.158741 40.184968 47.314614
6312    1 2 0.0 74.037764 41.848380 45.385834
6313    1 1 0.0 77.377071 30.371545 59.109564
6314    1 1 0.0 78.131704 36.176577 53.837461
6315    1 1 0.0 77.655764 30.131950 55.792457
6316    1 1 0.0 79.395919 32.913570 53.953350
6317    1 2 0.0 76.528890 31.895728 58.565777
6318    1 2 0.0 79.775157 33.531035 52.022348
6319    1 2 0.0 75.046639 34.704388 53.599872
6320    1 2 0.0 78.270515 31.676331 54.543584
6321    1 2 0.0 80.622368 32.140438 54.961171
6322    1 2 0.0 77.690985 29.812289 57.626239
6323    1 2 0.0 78.745326 34.382771 54.413194
6324    1 2 0.0 77.032700 36.464211 52.484414
6325    1 1 0.0 77.819998 24.537399 66.208144
6326    1 1 0.0 79.808019 30.043363 60.936041
6327    1 1 0.0 78.040504 24.243369 62.891037
6328    1 1 0.0 80.339267 26.584572 61.051930
6329    1 2 0.0 77.320249 26.208564 65.664357
6330    1 2 0.0 80.842671 27.105791 59.120928
6331    1 2 0.0 76.478165 29.270677 60.698452
6332    1 2 0.0 78.973657 25.618961 61.642164
6333    1 2 0.0 81.370265 25.565282 62.059751
6334    1 2 0.0 78.006002 23.923630 64.724819
6335    1 2 0.0 80.020612 28.159464 61.511774
6336    1 2 0.0 78.796835 30.561099 59.582994
6337    1 1 0.0 76.995119 18.744902 73.306724
6338    1 1 0.0 80.123084 23.693002 68.034621
6339    1 1 0.0 77.147072 18.410258 69.989617
6340    1 1 0.0 79.896396 20.201001 68.150510
6341    1 2 0.0 76.867290 20.484500 72.762937
6342    1 2 0.0 80.500304 20.601475 66.219508
6343    1 2 0.0 76.704955 23.656138 67.797032
6344    1 2 0.0 78.354768 19.552405 68.740744
6345    1 2 0.0 80.683483 18.983461 69.158331
6346    1 2 0.0 77.044470 18.105469 71.823399
6347    1 2 0.0 79.924657 21.807558 68.610354
6348    1 2 0.0 79.247249 24.416505 66.681574
6349    1 1 0.0 74.941205 13.266317 80.405304
6350    1 1 0.0 79.062092 17.423980 75.133201
6351    1 1 0.0 75.017463 12.906789 77.088197
6352    1 1 0.0 78.088122 14.062902 75.249090
6353    1 2 0.0 75.191305 14.992583 79.861517
6354    1 2 0.0 78.764149 14.323808 73.318088
6355    1 2 0.0 75.716348 18.124670 74.895612
6356    1 2 0.0 76.442936 13.761807 75.839324
6357    1 2 0.0 78.594302 12.704340 76.256911
6358    1 2 0.0 74.851583 12.631276 78.921979
6359    1 2 0.0 78.461969 15.625612 75.708934
6360    1 2 0.0 78.362772 18.319242 73.780154
6361    1 1 0.0 71.754795 8.359155 87.503884
6362    1 1 0.0 76.674911 11.530957 82.231781
6363    1 1 0.0 71.751774 7.991640 84.186777
6364    1 1 0.0 74.999439 8.458784 82.347670
6365    1 2 0.0 72.371069 9.990948 86.960097
6366    1 2 0.0 75.715809 8.567858 80.416668
6367    1 2 0.0 73.558812 12.936268 81.994192
6368    1 2 0.0 73.328023 8.519341 82.937904
6369    1 2 0.0 75.200920 7.023055 83.355491
6370    1 2 0.0 71.530413 7.758353 86.020559
6371    1 2 0.0 75.701301 9.904195 82.807514
6372    1 2 0.0 76.184976 12.555900 80.878734
6373    1 1 0.0 67.585661 4.254064 94.602464
6374    1 1 0.0 73.073745 6.290923 89.330361
6375    1 1 0.0 67.503503 3.895838 91.285357
6376    1 1 0.0 70.775523 3.652054 89.446250
6377    1 2 0.0 68.539141 5.714687 94.058677
6378    1 2 0.0 71.498566 3.604170 87.515248
6379    1 2 0.0 70.333757 8.334800 89.092772
6380    1 2 0.0 69.156440 4.071418 90.036484
6381    1 2 0.0 70.662836 2.206643 90.454071
6382    1 2 0.0 67.237065 3.715742 93.119139
6383    1 2 0.0 71.772411 4.912228 89.906094
6384    1 2 0.0 72.816225 7.397371 87.977314
6385    1 1 0.0 62.629763 1.143997 101.701044
6386    1 1 0.0 68.427861 1.950174 96.428941
6387    1 1 0.0 62.472329 0.811896 98.383937
6388    1 1 0.0 65.614911 -0.131357 96.544830
6389    1 2 0.0 63.875634 2.364795 101.157257
6390    1 2 0.0 66.310641 -0.333948 94.613828
6391    1 2 0.0 66.192770 4.536550 96.191352
6392    1 2 0.0 64.124261 0.627102 97.135064
6393    1 2 0.0 65.193352 -1.518511 97.552651
6394    1 2 0.0 62.173338 0.693457 100.217719
6395    1 2 0.0 66.859968 0.884348 97.004674
6396    1 2 0.0 68.414858 3.086120 95.075894
6397    1 1 0.0 57.120041 -0.824866 108.799624
6398    1 1 0.0 62.955626 -1.287263 103.527521
6399    1 1 0.0 56.894732 -1.115231 105.482517
6400    1 1 0.0 59.760165 -2.713617 103.643410
6401    1 2 0.0 58.599744 0.098727 108.255837
6402    1 2 0.0 60.395882 -3.061394 101.712408
6403    1 2 0.0 61.330489 1.720044 103.289932
6404    1 2 0.0 58.468014 -1.651713 104.233644
6405    1 2 0.0 59.049549 -3.977316 104.651231
6406    1 2 0.0 56.577241 -1.166448 107.316299
6407    1 2 0.0 61.194870 -1.990122 104.103254
6408    1 2 0.0 63.187752 -0.175210 102.174474
6409    1 1 0.0 51.315469 -1.559982 115.898204
6410    1 1 0.0 56.914252 -3.269219 110.626101
6411    1 1 0.0 51.032875 -1.794963 112.581097
6412    1 1 0.0 53.486476 -3.973354 110.741990
6413    1 2 0.0 52.959453 -0.977006 115.354417
6414    1 2 0.0 54.032298 -4.449970 108.810988
6415    1 2 0.0 55.975454 0.017668 110.388512
6416    1 2 0.0 52.453558 -2.657917 111.332224
6417    1 2 0.0 52.520203 -5.054199 111.749811
6418    1 2 0.0 50.711807 -1.776549 114.414879
6419    1 2 0.0 55.043394 -3.576075 111.201834
6420    1 2 0.0 57.380597 -2.233330 109.273054
6421    1 1 0.0 45.488878 -1.026798 122.996784
6422    1 1 0.0 50.587701 -3.902537 117.724681
6423    1 1 0.0 45.162281 -1.195352 119.679677
6424    1 1 0.0 47.088724 -3.851356 117.840570
6425    1 2 0.0 47.219871 -0.811840 122.452997
6426    1 2 0.0 47.518997 -4.434409 115.909568
6427    1 2 0.0 50.379368 -0.490563 117.487092
6428    1 2 0.0 46.363589 -2.344215 118.430804
6429    1 2 0.0 45.912212 -4.698545 118.848391
6430    1 2 0.0 44.852727 -1.108173 121.513459
6431    1 2 0.0 48.694675 -3.798967 118.300414
6432    1 2 0.0 51.266344 -2.991501 116.371634
6433    1 1 0.0 39.914134 0.749623 130.095364
6434    1 1 0.0 44.273337 -3.157448 124.823261
6435    1 1 0.0 39.558885 0.655421 126.778257
6436    1 1 0.0 40.867622 -2.353358 124.939150
6437    1 2 0.0 41.650774 0.586459 129.551577
6438    1 2 0.0 41.162121 -3.015442 123.008148
6439    1 2 0.0 44.805262 0.219240 124.585672
6440    1 2 0.0 40.484353 -0.725353 125.529384
6441    1 2 0.0 39.536170 -2.927071 125.946971
6442    1 2 0.0 39.275395 0.807267 128.612039
6443    1 2 0.0 42.447122 -2.648321 125.398994
6444    1 2 0.0 45.132381 -2.414087 123.470214
6445    1 1 0.0 34.853265 3.685787 137.193944
6446    1 1 0.0 38.267954 -1.068975 131.921841
6447    1 1 0.0 34.486062 3.670363 133.876837
6448    1 1 0.0 35.115578 0.450230 132.037730
6449    1 2 0.0 36.513926 3.152170 136.650157
6450    1 2 0.0 35.260461 -0.259765 130.106728
6451    1 2 0.0 39.515134 2.113713 131.684252
6452    1 2 0.0 35.092191 2.122578 132.627964
6453    1 2 0.0 33.691769 0.176960 133.045551
6454    1 2 0.0 34.241961 3.879739 135.710619
6455    1 2 0.0 36.594386 -0.178220 132.497574
6456    1 2 0.0 39.267021 -0.528229 130.568794
6457    1 1 0.0 30.544146 7.643683 144.292524
6458    1 1 0.0 32.853821 2.264718 139.020421
6459    1 1 0.0 30.182249 7.707763 140.975417
6460    1 1 0.0 30.102956 4.427632 139.136310
6461    1 2 0.0 32.050773 6.764696 143.748737
6462    1 2 0.0 30.091413 3.703097 137.205308
6463    1 2 0.0 34.757636 5.103813 138.782832
6464    1 2 0.0 30.440548 6.065718 139.726544
6465    1 2 0.0 28.653711 4.467649 140.144131
6466    1 2 0.0 29.989010 7.964828 142.809199
6467    1 2 0.0 31.411564 3.495233 139.596154
6468    1 2 0.0 33.945953 2.577434 137.667374
6469    1 1 0.0 27.189319 12.437282 151.391104
6470    1 1 0.0 28.285418 6.686940 146.119001
6471    1 1 0.0 26.849737 12.577853 148.073997
6472    1 1 0.0 26.065361 9.391899 146.234890
6473    1 2 0.0 28.471095 11.254237 150.847317
6474    1 2 0.0 25.897935 8.686879 144.303888
6475    1 2 0.0 30.756383 9.048994 145.881412
6476    1 2 0.0 26.748067 10.918729 146.825124
6477    1 2 0.0 24.658801 9.743322 147.242711
6478    1 2 0.0 26.716444 12.870524 149.907779
6479    1 2 0.0 27.142261 8.199376 146.694734
6480    1 2 0.0 29.419281 6.756926 144.765954
6481    1 1 0.0 24.946469 17.841268 158.489684
6482    1 1 0.0 24.777473 11.989832 153.217581
6483    1 1 0.0 24.645164 18.051724 155.172577
6484    1 1 0.0 23.192574 15.109696 153.333470
6485    1 2 0.0 25.943147 16.409774 157.945897
6486    1 2 0.0 22.877134 14.457330 151.402468
6487    1 2 0.0 27.699446 13.763823 152.979992
6488    1 2 0.0 24.188303 16.453504 153.923704
6489    1 2 0.0 21.894809 15.756007 154.341291
6490    1 2 0.0 24.578081 18.366245 157.006359
6491    1 2 0.0 23.987148 13.713102 153.793314
6492    1 2 0.0 25.899772 11.813799 151.864534
6493    1 1 0.0 23.921016 23.601641 165.588264
6494    1 1 0.0 22.494869 17.924145 160.316161
6495    1 1 0.0 23.672151 23.872089 162.271157
6496    1 1 0.0 21.619622 21.312271 160.432050
6497    1 2 0.0 24.585750 21.988982 165.044477
6498    1 2 0.0 21.170994 20.743221 158.501048
6499    1 2 0.0 25.730508 19.026690 160.078572
6500    1 2 0.0 22.881572 22.409894 161.022284
6501    1 2 0.0 20.491652 22.223092 161.439871
6502    1 2 0.0 23.674431 24.193676 164.104939
6503    1 2 0.0 22.094523 19.777249 160.891894
6504    1 2 0.0 23.552853 17.510367 158.963114
6505    1 1 0.0 24.161161 29.447647 172.686844
6506    1 1 0.0 21.544895 24.210948 167.414741
6507    1 1 0.0 23.976432 29.765375 169.369737
6508    1 1 0.0 21.420438 27.708085 167.530630
6509    1 2 0.0 24.462706 27.729621 172.143057
6510    1 2 0.0 20.859711 27.249098 165.599628
6511    1 2 0.0 24.942116 24.590225 167.177152
6512    1 2 0.0 22.889295 28.507932 168.120864
6513    1 2 0.0 20.515281 28.840605 168.538451
6514    1 2 0.0 24.047968 30.078913 171.203519
6515    1 2 0.0 21.553345 26.106786 167.990474
6516    1 2 0.0 22.488836 23.578874 166.061694
6517    1 1 0.0 25.655615 35.104506 179.785424
6518    1 1 0.0 21.972201 30.554745 174.513321
6519    1 1 0.0 25.543705 35.454581 176.468317
6520    1 1 0.0 22.604386 33.996518 174.629210
6521    1 2 0.0 25.579798 33.361866 179.241637
6522    1 2 0.0 21.957914 33.669168 172.698208
6523    1 2 0.0 25.371327 30.192926 174.275732
6524    1 2 0.0 24.211109 34.460994 175.219444
6525    1 2 0.0 21.964587 35.297504 175.637031
6526    1 2 0.0 25.681135 35.745333 178.302099
6527    1 2 0.0 22.389051 32.404206 175.089054
6528    1 2 0.0 22.757731 29.734083 173.160274
6529    1 1 0.0 28.334134 40.306331 186.884004
6530    1 1 0.0 23.756705 36.657359 181.611901
6531    1 1 0.0 28.300304 40.672298 183.566897
6532    1 1 0.0 25.115816 39.881994 181.727790
6533    1 2 0.0 27.884519 38.620986 186.340217
6534    1 2 0.0 24.413985 39.701667 179.796788
6535    1 2 0.0 26.997965 35.571451 181.374312
6536    1 2 0.0 26.784884 39.989267 182.318024
6537    1 2 0.0 24.771446 41.290298 182.735611
6538    1 2 0.0 28.497168 40.926597 185.400679
6539    1 2 0.0 24.562361 38.373514 182.187634
6540    1 2 0.0 24.346902 35.686683 180.258854
6541    1 1 0.0 32.070822 44.808621 193.982584
6542    1 1 0.0 26.814528 42.231950 188.710481
6543    1 1 0.0 32.116661 45.173278 190.665477
6544    1 1 0.0 28.836684 45.087881 188.826370
6545    1 2 0.0 31.268541 43.259787 193.438797
6546    1 2 0.0 28.112482 45.063053 186.895368
6547    1 2 0.0 29.745576 40.472993 188.472892
6548    1 2 0.0 30.489646 44.832909 189.416604
6549    1 2 0.0 28.803930 46.537307 189.834191
6550    1 2 0.0 32.363706 45.379172 192.499259
6551    1 2 0.0 27.971123 43.734135 189.286214
6552    1 2 0.0 27.181651 41.156885 187.357434
6553    1 1 0.0 36.690043 48.399756 201.081164
6554    1 1 0.0 31.001945 47.016496 195.809061
6555    1 1 0.0 36.813397 48.745964 197.764057
6556    1 1 0.0 33.592098 49.369486 195.924950
6557    1 2 0.0 35.572806 47.060232 200.537377
6558    1 2 0.0 32.879566 49.501325 193.993948
6559    1 2 0.0 33.485012 44.667168 195.571472
6560    1 2 0.0 35.151261 48.764254 196.515184
6561    1 2 0.0 33.872500 50.791908 196.932771
6562    1 2 0.0 37.099011 48.893775 199.597839
6563    1 2 0.0 32.455115 48.234104 196.384794
6564    1 2 0.0 31.128738 45.887573 194.456014
6565    1 1 0.0 41.974680 50.910943 2.857868
6566    1 1 0.0 36.122135 50.786112 202.907641
6567    1 1 0.0 42.169751 51.222428 204.862637
6568    1 1 0.0 39.158542 52.525563 203.023530
6569    1 2 0.0 40.595000 49.843691 2.314081
6570    1 2 0.0 38.491169 52.807871 201.092528
6571    1 2 0.0 38.040511 47.956835 202.670052
6572    1 2 0.0 40.550620 51.598518 203.613764
6573    1 2 0.0 39.738919 53.854123 204.031351
6574    1 2 0.0 42.480510 51.305209 1.374543
6575    1 2 0.0 37.803577 51.661912 203.483374
6576    1 2 0.0 36.002639 49.656393 201.554594
6577    1 1 0.0 47.676341 52.224148 9.956448
6578    1 1 0.0 41.934435 53.363613 4.684345
6579    1 1 0.0 47.933960 52.486270 6.639341
6580    1 1 0.0 45.274375 54.407768 4.800234
6581    1 2 0.0 46.099068 51.479331 9.412661
6582    1 2 0.0 44.683531 54.827276 2.869232
6583    1 2 0.0 43.197950 50.187373 4.446756
6584    1 2 0.0 46.433938 53.202483 5.390468
6585    1 2 0.0 46.127449 55.580019 5.808055
6586    1 2 0.0 48.255257 52.500130 8.473123
6587    1 2 0.0 43.765116 53.856440 5.260078
6588    1 2 0.0 41.574266 52.286199 3.331298
6589    1 1 0.0 53.527032 52.277648 17.055028
6590    1 1 0.0 48.165651 54.627851 11.782925
6591    1 1 0.0 53.835091 52.478087 13.737921
6592    1 1 0.0 51.652138 54.927630 11.898814
6593    1 2 0.0 51.826302 51.890275 16.511241
6594    1 2 0.0 51.165593 55.464620 9.967812
6595    1 2 0.0 48.714916 51.253940 11.545336
6596    1 2 0.0 52.524682 53.500758 12.489048
6597    1 2 0.0 52.737812 55.888474 12.906635
6598    1 2 0.0 54.151824 52.422373 15.571703
6599    1 2 0.0 50.059525 54.714540 12.358658
6600    1 2 0.0 47.581738 53.653382 10.429878
6601    1 1 0.0 59.251755 51.068927 24.153608
6602    1 1 0.0 54.522898 54.519402 18.881505
6603    1 1 0.0 59.595773 51.198262 20.836501
6604    1 1 0.0 57.992057 54.060715 18.997394
6605    1 2 0.0 57.507505 51.057206 23.609821
6606    1 2 0.0 57.632680 54.689947 17.066392
6607    1 2 0.0 54.332097 51.106403 18.643916
6608    1 2 0.0 58.536570 52.479323 19.587628
6609    1 2 0.0 59.259301 54.764990 20.005215
6610    1 2 0.0 59.893054 51.075594 22.670283
6611    1 2 0.0 56.390946 54.195879 19.457238
6612    1 2 0.0 53.742686 53.693682 17.528458
6613    1 1 0.0 61.583961 44.365637 32.196506
6614    1 1 0.0 59.205662 48.284405 26.209488
6615    1 1 0.0 61.652392 44.439710 29.378169
6616    1 1 0.0 61.915291 47.305786 26.629067
6617    1 2 0.0 60.097854 44.573258 31.601567
6618    1 2 0.0 61.877365 47.966100 24.692872
6619    1 2 0.0 57.282427 44.990197 26.985389
6620    1 2 0.0 61.501031 45.741094 27.717115
6621    1 2 0.0 63.422286 47.777320 27.364867
6622    1 2 0.0 62.011827 44.294489 30.970512
6623    1 2 0.0 60.633085 47.674994 26.923833
6624    1 2 0.0 58.162050 47.601317 25.125083
6625    1 1 0.0 65.414108 41.606400 39.295086
6626    1 1 0.0 63.936290 45.945652 33.308068
6627    1 1 0.0 65.496895 41.663983 36.476749
6628    1 1 0.0 66.371323 44.406042 33.727647
6629    1 2 0.0 64.007673 42.129433 38.700147
6630    1 2 0.0 66.476602 45.059012 31.791452
6631    1 2 0.0 61.348273 43.143365 34.083969
6632    1 2 0.0 65.629571 42.967405 34.815695
6633    1 2 0.0 67.944528 44.541701 34.463447
6634    1 2 0.0 65.816584 41.444709 38.069092
6635    1 2 0.0 65.198823 45.042919 34.022413
6636    1 2 0.0 62.769983 45.503540 32.223663
6637    1 1 0.0 68.559560 38.086521 46.393666
6638    1 1 0.0 68.051685 42.642300 40.406648
6639    1 1 0.0 68.652812 38.124909 43.575329
6640    1 1 0.0 70.097668 40.614065 40.826227
6641    1 2 0.0 67.298904 38.900383 45.798727
6642    1 2 0.0 70.341203 41.228999 38.890032
6643    1 2 0.0 64.920530 40.463650 41.182549
6644    1 2 0.0 69.063288 39.369104 41.914275
6645    1 2 0.0 71.663138 40.407473 41.562027
6646    1 2 0.0 68.917729 37.841888 45.167672
6647    1 2 0.0 69.089986 41.488677 41.120993
6648    1 2 0.0 66.817501 42.461945 39.322243
6649    1 1 0.0 70.872472 33.971445 53.492246
6650    1 1 0.0 71.358411 38.529615 47.505228
6651    1 1 0.0 70.971806 33.988832 50.673909
6652    1 1 0.0 72.919178 36.108089 47.924807
6653    1 2 0.0 69.816850 35.037881 52.897307
6654    1 2 0.0 73.289523 36.656084 45.988612
6655    1 2 0.0 67.831292 37.077005 48.281129
6656    1 2 0.0 71.640788 35.115320 49.012855
6657    1 2 0.0 74.403332 35.568956 48.660607
6658    1 2 0.0 71.169499 33.655367 52.266252
6659    1 2 0.0 72.123678 37.179326 48.219573
6660    1 2 0.0 70.114362 38.619495 46.420823
6661    1 1 0.0 72.244130 29.454592 60.590826
6662    1 1 0.0 73.701043 33.800907 54.603808
6663    1 1 0.0 72.344877 29.450161 57.772489
6664    1 1 0.0 74.703234 31.099908 55.023387
6665    1 2 0.0 71.443159 30.723476 59.995887
6666    1 2 0.0 75.182981 31.555206 53.087192
6667    1 2 0.0 69.943744 33.142613 55.379709
6668    1 2 0.0 73.240923 30.405993 56.111435
6669    1 2 0.0 76.036312 30.253575 55.759187
6670    1 2 0.0 72.466054 29.081925 59.364832
6671    1 2 0.0 74.157305 32.317418 55.318153
6672    1 2 0.0 72.505602 34.156797 53.519403
6673    1 1 0.0 72.610063 24.748266 67.689406
6674    1 1 0.0 74.969471 28.678437 61.702388
6675    1 1 0.0 72.707488 24.722226 64.871069
6676    1 1 0.0 75.365979 25.824919 62.121967
6677    1 2 0.0 72.101391 26.159958 67.094467
6678    1 2 0.0 75.932579 26.166120 60.185772
6679    1 2 0.0 71.158596 28.845401 62.478289
6680    1 2 0.0 73.788479 25.462475 63.210015
6681    1 2 0.0 76.485324 24.711166 62.857767
6682    1 2 0.0 72.746454 24.336527 66.463412
6683    1 2 0.0 75.095284 27.131477 62.416733
6684    1 2 0.0 73.878828 29.283609 60.617983
6685    1 1 0.0 71.953072 20.073677 74.787986
6686    1 1 0.0 75.104075 23.402976 68.800968
6687    1 1 0.0 72.042595 20.027253 71.969649
6688    1 1 0.0 74.876264 20.531063 69.220547
6689    1 2 0.0 71.760607 21.561824 74.193047
6690    1 2 0.0 75.503085 20.742129 67.284352
6691    1 2 0.0 71.418746 24.387350 69.576869
6692    1 2 0.0 73.257723 20.517126 70.308595
6693    1 2 0.0 75.729262 19.202239 69.956347
6694    1 2 0.0 71.997517 19.642220 73.561992
6695    1 2 0.0 74.893524 21.865256 69.515313
6696    1 2 0.0 74.169492 24.228985 67.716563
6697    1 1 0.0 70.304035 15.650546 81.886566
6698    1 1 0.0 74.098529 18.222485 75.899548
6699    1 1 0.0 70.381449 15.585918 79.068229
6700    1 1 0.0 73.257106 15.467165 76.319127
6701    1 2 0.0 70.436825 17.145200 81.291627
6702    1 2 0.0 73.914686 15.538176 74.382932
6703    1 2 0.0 70.711966 19.978001 76.675449
6704    1 2 0.0 71.673599 15.802389 77.407175
6705    1 2 0.0 73.803664 13.985729 77.054927
6706    1 2 0.0 70.254447 15.219650 80.660572
6707    1 2 0.0 73.561511 16.766282 76.613893
6708    1 2 0.0 73.363935 19.230507 74.815143
6709    1 1 0.0 67.740464 11.686771 88.985146
6710    1 1 0.0 72.000096 13.380462 82.998128
6711    1 1 0.0 67.802129 11.606977 86.166809
6712    1 1 0.0 70.584611 10.871243 83.417707
6713    1 2 0.0 68.192266 13.117679 88.390207
6714    1 2 0.0 71.242040 10.798861 81.481512
6715    1 2 0.0 69.071477 15.824606 83.774029
6716    1 2 0.0 69.110566 11.539872 84.505755
6717    1 2 0.0 70.799039 9.306826 84.153507
6718    1 2 0.0 67.599173 11.276689 87.759152
6719    1 2 0.0 71.161852 12.074222 83.712473
6720    1 2 0.0 71.500018 14.523116 81.913723
6721    1 1 0.0 64.382852 8.368661 96.083726
6722    1 1 0.0 68.907407 9.104496 90.096708
6723    1 1 0.0 64.425871 8.277452 93.265389
6724    1 1 0.0 66.984392 6.959317 90.516287
6725    1 2 0.0 65.132431 9.668566 95.488787
6726    1 2 0.0 67.610771 6.746945 88.580092
6727    1 2 0.0 66.574387 12.122386 90.872609
6728    1 2 0.0 65.689095 7.929925 91.604335
6729    1 2 0.0 66.856612 5.385452 91.252087
6730    1 2 0.0 64.156499 7.998668 94.857732
6731    1 2 0.0 67.807338 8.009616 90.811053
6732    1 2 0.0 68.665351 10.328075 89.012303
6733    1 1 0.0 60.389018 5.852176 103.182306
6734    1 1 0.0 64.965829 5.595569 97.195288
6735    1 1 0.0 60.411367 5.753839 100.363969
6736    1 1 0.0 62.625670 3.915260 97.614867
6737    1 2 0.0 61.401141 6.959979 102.587367
6738    1 2 0.0 63.191558 3.572879 95.678672
6739    1 2 0.0 63.338065 9.045355 97.971189
6740    1 2 0.0 61.570004 5.142224 98.702915
6741    1 2 0.0 62.161688 2.405923 98.350667
6742    1 2 0.0 60.088242 5.539662 101.956312
6743    1 2 0.0 63.655640 4.763511 97.909633
6744    1 2 0.0 64.993172 6.842561 96.110883
6745    1 1 0.0 55.946681 4.255598 110.280886
6746    1 1 0.0 60.360627 3.018610 104.293868
6747    1 1 0.0 55.947312 4.154755 107.462549
6748    1 1 0.0 57.713318 1.882151 104.713447
6749    1 2 0.0 57.173776 5.119230 109.685947
6750    1 2 0.0 58.192115 1.425854 102.777252
6751    1 2 0.0 59.514628 6.738144 105.069769
6752    1 2 0.0 56.946902 3.307801 105.801495
6753    1 2 0.0 56.934943 0.508284 105.449247
6754    1 2 0.0 55.585620 4.015253 109.054892
6755    1 2 0.0 58.901901 2.488484 105.008213
6756    1 2 0.0 60.656083 4.230403 103.209463
6757    1 1 0.0 51.264646 3.653971 117.379466
6758    1 1 0.0 55.308257 1.494744 111.392448
6759    1 1 0.0 51.243528 3.555362 114.561129
6760    1 1 0.0 52.478230 0.955551 111.812027
6761    1 2 0.0 52.649036 4.232838 116.784527
6762    1 2 0.0 52.847432 0.406786 109.875832
6763    1 2 0.0 55.283788 5.309196 112.168349
6764    1 2 0.0 52.037087 2.512877 112.900075
6765    1 2 0.0 51.422046 -0.218269 112.547827
6766    1 2 0.0 50.860270 3.497092 116.153472
6767    1 2 0.0 53.769558 1.291466 112.106793
6768    1 2 0.0 55.857940 2.614380 110.308043
6769    1 1 0.0 46.562980 4.075573 124.478046
6770    1 1 0.0 50.046196 1.095597 118.491028
6771    1 1 0.0 46.521105 3.983833 121.659709
6772    1 1 0.0 47.166469 1.179013 118.910607
6773    1 2 0.0 48.039594 4.342467 123.883107
6774    1 2 0.0 47.408722 0.563573 116.974412
6775    1 2 0.0 50.844407 4.825677 119.266929
6776    1 2 0.0 47.071334 2.794817 119.998655
6777    1 2 0.0 45.882121 0.260412 119.646407
6778    1 2 0.0 46.134296 4.009534 123.252052
6779    1 2 0.0 48.499847 1.228722 119.205373
6780    1 2 0.0 50.824268 2.070450 117.406623
6781    1 1 0.0 42.062675 5.500587 131.576626
6782    1 1 0.0 44.821774 1.839929 125.589608
6783    1 1 0.0 42.002012 5.420029 128.758289
6784    1 1 0.0 42.027704 2.542035 126.009187
6785    1 2 0.0 43.562109 5.442964 130.981687
6786    1 2 0.0 42.131622 1.888847 124.072992
6787    1 2 0.0 46.405148 5.310314 126.365509
6788    1 2 0.0 42.283049 4.140369 127.097235
6789    1 2 0.0 40.575560 1.921830 126.744987
6790    1 2 0.0 41.629833 5.528492 130.350632
6791    1 2 0.0 43.340459 2.303201 126.303953
6792    1 2 0.0 45.791665 2.624179 124.505203
6793    1 1 0.0 37.975257 7.862035 138.675206
6794    1 1 0.0 39.880556 3.692755 132.688188
6795    1 1 0.0 37.898659 7.796443 135.856869
6796    1 1 0.0 37.303470 4.980549 133.107767
6797    1 2 0.0 39.427033 7.482602 138.080267
6798    1 2 0.0 37.264169 4.320316 131.171572
6799    1 2 0.0 42.174668 6.740327 133.464089
6800    1 2 0.0 37.897293 6.486287 134.195815
6801    1 2 0.0 35.751785 4.687891 133.843567
6802    1 2 0.0 37.558602 7.982571 137.449212
6803    1 2 0.0 38.533900 4.464398 133.402533
6804    1 2 0.0 40.996677 4.249539 131.603783
6805    1 1 0.0 34.492848 11.048920 145.773786
6806    1 1 0.0 35.454791 6.566988 139.786768
6807    1 1 0.0 34.403913 11.001379 142.955449
6808    1 1 0.0 33.215821 8.379940 140.206347
6809    1 2 0.0 35.828729 10.365512 145.178847
6810    1 2 0.0 33.035147 7.743693 138.270152
6811    1 2 0.0 38.351812 9.048501 140.562669
6812    1 2 0.0 34.120210 9.722308 141.294395
6813    1 2 0.0 31.637527 8.428585 140.942147
6814    1 2 0.0 34.111963 11.256423 144.547792
6815    1 2 0.0 34.306090 7.610732 140.501113
6816    1 2 0.0 36.664682 6.870136 138.702363
6817    1 1 0.0 31.779130 14.911451 152.872366
6818    1 1 0.0 31.752503 10.327529 146.885348
6819    1 1 0.0 31.682039 14.884195 150.054029
6820    1 1 0.0 29.956886 12.580425 147.304927
6821    1 2 0.0 32.936325 13.956190 152.277427
6822    1 2 0.0 29.643332 11.998071 145.368732
6823    1 2 0.0 35.116265 12.126347 147.661249
6824    1 2 0.0 31.129333 13.696329 148.392975
6825    1 2 0.0 28.426168 12.968087 148.040727
6826    1 2 0.0 31.451918 15.196167 151.646372
6827    1 2 0.0 30.855750 11.594317 147.599693
6828    1 2 0.0 32.999296 10.362792 145.800943
6829    1 1 0.0 29.961656 19.268078 159.970946
6830    1 1 0.0 28.947710 14.797623 153.983928
6831    1 1 0.0 29.860972 19.262388 157.152609
6832    1 1 0.0 27.679845 17.384572 154.403507
6833    1 2 0.0 30.885773 18.085864 159.376007
6834    1 2 0.0 27.248149 16.883482 152.467312
6835    1 2 0.0 32.620107 15.829196 154.759829
6836    1 2 0.0 29.065242 18.221559 155.491555
6837    1 2 0.0 26.268652 18.093029 155.139307
6838    1 2 0.0 29.703497 19.616625 158.744952
6839    1 2 0.0 28.345055 16.227911 154.698273
6840    1 2 0.0 30.172801 14.563345 152.899523
6841    1 1 0.0 29.125851 23.914027 167.069526
6842    1 1 0.0 27.172245 19.767164 161.082508
6843    1 1 0.0 29.026307 23.930171 164.251189
6844    1 1 0.0 26.491726 22.566570 161.502087
6845    1 2 0.0 29.773455 22.560428 166.474587
6846    1 2 0.0 25.962178 22.170298 159.565892
6847    1 2 0.0 30.980664 19.983004 161.858409
6848    1 2 0.0 28.024954 23.085302 162.590135
6849    1 2 0.0 25.266387 23.562523 162.237887
6850    1 2 0.0 28.948879 24.310022 165.843532
6851    1 2 0.0 26.892014 21.293724 161.796853
6852    1 2 0.0 28.318052 19.274355 159.998103
6853    1 1 0.0 29.311001 28.630926 174.168106
6854    1 1 0.0 26.509560 25.002568 168.181088
6855    1 1 0.0 29.217276 28.668144 171.349769
6856    1 1 0.0 26.448372 27.882852 168.600667
6857    1 2 0.0 29.651653 27.169564 173.573167
6858    1 2 0.0 25.845863 27.610023 166.664472
6859    1 2 0.0 30.274995 24.392531 168.956989
6860    1 2 0.0 28.057367 28.058946 169.688715
6861    1 2 0.0 25.466482 29.119489 169.336467
6862    1 2 0.0 29.223535 29.055756 172.942112
6863    1 2 0.0 26.564925 26.553648 168.895433
6864    1 2 0.0 27.522227 24.274392 167.096683
6865    1 1 0.0 30.508404 33.197066 181.266686
6866    1 1 0.0 26.990803 30.257757 175.279668
6867    1 1 0.0 30.424903 33.253610 178.448349
6868    1 1 0.0 27.551823 33.083538 175.699247
6869    1 2 0.0 30.526091 31.696630 180.671747
6870    1 2 0.0 26.904673 32.946976 173.763052
6871    1 2 0.0 30.536267 28.850516 176.055569
6872    1 2 0.0 29.160956 32.908717 176.787295
6873    1 2 0.0 26.859533 34.502733 176.435047
6874    1 2 0.0 30.514554 33.630763 180.040692
6875    1 2 0.0 27.379162 31.760452 175.994013
6876    1 2 0.0 27.822732 29.328440 174.195263
6877    1 1 0.0 32.661777 37.397828 188.365266
6878    1 1 0.0 28.593354 35.285723 182.378248
6879    1 1 0.0 32.592425 37.471039 185.546929
6880    1 1 0.0 29.750213 37.924181 182.797827
6881    1 2 0.0 32.355670 35.928841 187.770327
6882    1 2 0.0 29.088839 37.930304 180.861632
6883    1 2 0.0 31.752201 33.147422 183.154149
6884    1 2 0.0 31.283851 37.406661 183.885875
6885    1 2 0.0 29.380063 39.459227 183.533627
6886    1 2 0.0 32.761255 37.820006 187.139272
6887    1 2 0.0 29.296453 36.669402 183.092593
6888    1 2 0.0 29.205442 34.198945 181.293843
6889    1 1 0.0 35.669908 41.035762 195.463846
6890    1 1 0.0 31.241889 39.850136 189.476828
6891    1 1 0.0 35.617964 41.122199 192.645509
6892    1 1 0.0 32.940210 42.177256 189.896407
6893    1 2 0.0 35.054392 39.667272 194.868907
6894    1 2 0.0 32.295699 42.325777 187.960212
6895    1 2 0.0 33.865644 37.081282 190.252729
6896    1 2 0.0 34.326268 41.341364 190.984455
6897    1 2 0.0 32.909598 43.756003 190.632207
6898    1 2 0.0 35.858037 41.426579 194.237852
6899    1 2 0.0 32.226680 41.049763 190.191173
6900    1 2 0.0 31.605366 38.656980 188.392423
6901    1 1 0.0 39.391404 43.939876 202.562426
6902    1 1 0.0 34.811920 43.736457 196.575408
6903    1 1 0.0 39.359310 44.035477 199.744089
6904    1 1 0.0 36.971877 45.642858 196.994987
6905    1 2 0.0 38.495412 42.736206 201.967487
6906    1 2 0.0 36.374523 45.926796 195.058792
6907    1 2 0.0 36.777259 40.467193 197.351309
6908    1 2 0.0 38.145206 44.527882 198.083035
6909    1 2 0.0 37.282242 47.191100 197.730787
6910    1 2 0.0 39.659342 44.280962 201.336432
6911    1 2 0.0 36.032114 44.695645 197.289753
6912    1 2 0.0 34.909700 42.493004 195.491003
6913    1 1 0.0 43.651345 45.973668 4.339130
6914    1 1 0.0 39.135644 46.762018 203.673988
6915    1 1 0.0 43.640610 46.073940 1.520793
6916    1 1 0.0 41.655714 48.158093 204.093567
6917    1 2 0.0 42.516991 44.991394 3.744191
6918    1 2 0.0 41.133594 48.564103 202.157372
6919    1 2 0.0 40.350191 43.146009 204.449889
6920    1 2 0.0 42.561164 46.816441 205.181615
6921    1 2 0.0 42.292468 49.603058 204.829367
6922    1 2 0.0 43.986498 46.248991 3.113136
6923    1 2 0.0 40.533890 47.435683 204.388333
6924    1 2 0.0 38.963133 45.526714 202.589583
6925    1 1 0.0 48.249502 47.041545 11.437710
6926    1 1 0.0 44.009835 48.784608 5.450692
6927    1 1 0.0 48.260631 47.141774 8.619373
6928    1 1 0.0 46.771567 49.604739 5.870271
6929    1 2 0.0 46.930104 46.326836 10.842771
6930    1 2 0.0 46.349222 50.113736 3.934076
6931    1 2 0.0 44.416502 44.991817 6.226593
6932    1 2 0.0 47.366580 48.099471 6.958319
6933    1 2 0.0 47.704781 50.878510 6.606071
6934    1 2 0.0 48.636118 47.238164 10.211716
6935    1 2 0.0 45.520410 49.141086 6.165037
6936    1 2 0.0 43.575141 47.615516 4.366287
6937    1 1 0.0 52.969750 47.093313 18.536290
6938    1 1 0.0 49.205391 49.709161 12.549272
6939    1 1 0.0 53.002218 47.188788 15.717953
6940    1 1 0.0 52.078977 49.914799 12.968851
6941    1 2 0.0 51.527322 46.679762 17.941351
6942    1 2 0.0 51.776259 50.502859 11.032656
6943    1 2 0.0 48.785065 45.917860 13.325173
6944    1 2 0.0 52.335585 48.316667 14.056899
6945    1 2 0.0 53.264786 50.957504 13.704651
6946    1 2 0.0 53.389655 47.201987 17.310296
6947    1 2 0.0 50.757296 49.731696 13.263617
6948    1 2 0.0 48.528946 48.661231 11.464867
6949    1 1 0.0 57.590221 46.126539 25.634870
6950    1 1 0.0 54.478108 49.492220 19.647852
6951    1 1 0.0 57.642504 46.212773 22.816533
6952    1 1 0.0 57.328481 49.073699 20.067431
6953    1 2 0.0 56.092562 46.033585 25.039931
6954    1 2 0.0 57.159617 49.713182 18.131236
6955    1 2 0.0 53.250545 45.880609 20.423753
6956    1 2 0.0 57.234622 47.457821 21.155479
6957    1 2 0.0 58.711149 49.836329 20.803231
6958    1 2 0.0 58.023680 46.142159 24.408876
6959    1 2 0.0 55.998398 49.179753 20.362197
6960    1 2 0.0 53.591707 48.614708 18.563447
6961    1 1 0.0 62.181405 59.503946 34.366334
6962    1 1 0.0 55.704703 63.453820 29.840458
6963    1 1 0.0 62.005125 59.315821 31.002896
6964    1 1 0.0 59.305950 62.473620 30.190171
6965    1 2 0.0 60.226832 59.759802 33.684124
6966    1 2 0.0 58.377377 62.974556 28.534798
6967    1 2 0.0 55.893701 59.973847 28.509588
6968    1 2 0.0 60.372060 60.765829 30.169649
6969    1 2 0.0 60.542361 63.149684 31.688011
6970    1 2 0.0 62.604518 59.290231 32.901876
6971    1 2 0.0 57.776446 62.899460 30.490396
6972    1 2 0.0 54.700062 62.593935 28.211456
6973    1 1 0.0 69.260177 56.260174 41.464914
6974    1 1 0.0 63.786978 61.513104 36.939038
6975    1 1 0.0 69.047493 56.114463 38.101476
6976    1 1 0.0 67.092333 59.779785 37.288751
6977    1 2 0.0 67.406682 56.931275 40.782704
6978    1 2 0.0 66.293547 60.469079 35.633378
6979    1 2 0.0 63.221517 58.074181 35.608168
6980    1 2 0.0 67.765319 57.882358 37.268229
6981    1 2 0.0 68.445395 60.173485 38.786591
6982    1 2 0.0 69.627285 55.960291 40.000456
6983    1 2 0.0 65.690554 60.525262 37.588976
6984    1 2 0.0 62.620621 60.889952 35.310036
6985    1 1 0.0 75.473477 51.566992 48.563494
6986    1 1 0.0 71.261037 57.876075 44.037618
6987    1 1 0.0 75.234388 51.470544 45.200056
6988    1 1 0.0 74.115141 55.471109 44.387331
6989    1 2 0.0 73.808180 52.621793 47.881284
6990    1 2 0.0 73.483686 56.316361 42.731958
6991    1 2 0.0 69.967695 54.639842 42.706748
6992    1 2 0.0 74.363370 53.473230 44.366809
6993    1 2 0.0 75.521255 55.563940 45.885171
6994    1 2 0.0 75.767326 51.195036 47.099036
6995    1 2 0.0 72.906973 56.501183 44.687556
6996    1 2 0.0 69.987787 57.518945 42.408616
6997    1 1 0.0 80.529264 45.644993 55.662074
6998    1 1 0.0 77.775579 52.713684 51.136198
6999    1 1 0.0 80.275007 45.602340 52.298636
7000    1 1 0.0 80.044280 49.750111 51.485911
7001    1 2 0.0 79.130438 47.033915 54.979864
7002    1 2 0.0 79.609838 50.711592 49.830538
7003    1 2 0.0 75.815148 49.832253 49.805328
7004    1 2 0.0 79.856085 47.745686 51.465389
7005    1 2 0.0 81.437356 49.537709 52.983751
7006    1 2 0.0 80.736042 45.218447 54.197616
7007    1 2 0.0 79.086512 51.016365 51.786136
7008    1 2 0.0 76.455283 52.639363 49.507196
7009    1 1 0.0 84.189901 38.772526 62.760654
7010    1 1 0.0 83.024403 46.268578 58.234778
7011    1 1 0.0 83.932427 38.785675 59.397216
7012    1 1 0.0 84.601066 42.885694 58.584491
7013    1 2 0.0 83.123296 40.430287 62.078444
7014    1 2 0.0 84.384055 43.918211 56.929118
7015    1 2 0.0 80.489028 43.877384 56.903908
7016    1 2 0.0 83.985292 40.968936 58.563969
7017    1 2 0.0 85.915625 42.378043 60.082331
7018    1 2 0.0 84.299888 38.311439 61.296196
7019    1 2 0.0 83.938714 44.328612 58.884716
7020    1 2 0.0 81.719117 46.480559 56.605776
7021    1 1 0.0 86.283328 31.272618 69.859234
7022    1 1 0.0 86.760798 38.843695 65.333358
7023    1 1 0.0 86.034739 31.340950 66.495796
7024    1 1 0.0 87.571316 35.200505 65.683071
7025    1 2 0.0 85.599076 33.121298 69.177024
7026    1 2 0.0 87.581937 36.255528 64.027698
7027    1 2 0.0 83.769649 37.055131 64.002488
7028    1 2 0.0 86.556907 33.461507 65.662549
7029    1 2 0.0 88.745570 34.421466 67.180911
7030    1 2 0.0 86.291355 30.798662 68.394776
7031    1 2 0.0 87.235513 36.752264 65.983296
7032    1 2 0.0 85.531876 39.332014 63.704356
7033    1 1 0.0 86.711149 23.497785 76.957814
7034    1 1 0.0 88.809144 30.788025 72.431938
7035    1 1 0.0 86.483128 23.618088 73.594376
7036    1 1 0.0 88.815420 27.055769 72.781651
7037    1 2 0.0 86.441412 25.450491 76.275604
7038    1 2 0.0 89.053173 28.083708 71.126278
7039    1 2 0.0 85.502813 29.686158 71.101068
7040    1 2 0.0 87.450055 25.576270 72.761129
7041    1 2 0.0 89.794175 26.041959 74.279491
7042    1 2 0.0 86.616838 23.033238 75.493356
7043    1 2 0.0 88.821950 28.643434 73.081876
7044    1 2 0.0 87.714347 31.529730 70.802936
7045    1 1 0.0 85.453254 15.813466 84.056394
7046    1 1 0.0 89.073163 22.480207 79.530518
7047    1 1 0.0 85.256520 15.980085 80.692956
7048    1 1 0.0 88.274901 18.834313 79.880231
7049    1 2 0.0 85.610711 17.778416 83.374184
7050    1 2 0.0 88.728613 19.786852 78.224858
7051    1 2 0.0 85.607057 22.116829 78.199648
7052    1 2 0.0 86.622757 17.683852 79.859709
7053    1 2 0.0 89.012155 17.633383 81.378071
7054    1 2 0.0 85.261039 15.380163 82.591936
7055    1 2 0.0 88.623457 20.383257 80.180456
7056    1 2 0.0 88.163951 23.440435 77.901516
7057    1 1 0.0 82.568767 8.580846 91.154974
7058    1 1 0.0 87.540445 14.310732 86.629098
7059    1 1 0.0 82.412568 8.785950 87.791536
7060    1 1 0.0 85.975167 10.922566 86.978811
7061    1 2 0.0 83.146017 10.465680 90.472764
7062    1 2 0.0 86.623510 11.754933 85.323438
7063    1 2 0.0 84.077480 14.702923 85.298228
7064    1 2 0.0 84.113899 10.155219 86.958289
7065    1 2 0.0 86.436264 9.590964 88.476651
7066    1 2 0.0 82.287683 8.199152 89.690516
7067    1 2 0.0 86.649365 12.359986 87.279036
7068    1 2 0.0 86.859552 15.444351 85.000096
7069    1 1 0.0 78.193269 2.139878 98.253554
7070    1 1 0.0 84.283032 6.663589 93.727678
7071    1 1 0.0 78.084945 2.373826 94.890116
7072    1 1 0.0 82.024309 3.692404 94.077391
7073    1 2 0.0 79.163180 3.856005 97.571344
7074    1 2 0.0 82.836811 4.365476 92.422018
7075    1 2 0.0 80.985978 7.792913 92.396808
7076    1 2 0.0 80.041402 3.344238 94.056869
7077    1 2 0.0 82.187579 2.292719 95.575231
7078    1 2 0.0 77.836526 1.827735 96.789096
7079    1 2 0.0 82.992462 4.950737 94.377616
7080    1 2 0.0 83.862463 7.917315 92.098676
7081    1 1 0.0 72.532420 -3.206695 105.352134
7082    1 1 0.0 79.454032 -0.101786 100.826258
7083    1 1 0.0 72.477063 -2.954899 101.988696
7084    1 1 0.0 76.608031 -2.516336 101.175971
7085    1 2 0.0 73.849402 -1.739938 104.669924
7086    1 2 0.0 77.546501 -2.034195 99.520598
7087    1 2 0.0 76.477860 1.711591 99.495388
7088    1 2 0.0 74.596687 -2.428956 101.155449
7089    1 2 0.0 76.465799 -3.918315 102.673811
7090    1 2 0.0 72.116786 -3.434616 103.887676
7091    1 2 0.0 77.824631 -1.496235 101.476196
7092    1 2 0.0 79.313554 1.213118 99.197256
7093    1 1 0.0 65.852294 -7.207568 112.450714
7094    1 1 0.0 73.280421 -5.667401 107.924838
7095    1 1 0.0 65.852507 -6.949759 109.087276
7096    1 1 0.0 69.980912 -7.411824 108.274551
7097    1 2 0.0 67.454447 -6.059123 111.768504
7098    1 2 0.0 71.001239 -7.143277 106.619178
7099    1 2 0.0 70.765019 -3.255205 106.593968
7100    1 2 0.0 68.035670 -6.893006 108.254029
7101    1 2 0.0 69.539863 -8.750200 109.772391
7102    1 2 0.0 65.397307 -7.340554 110.986256
7103    1 2 0.0 71.388776 -6.677904 108.574776
7104    1 2 0.0 73.426638 -4.353123 106.295836
7105    1 1 0.0 58.466878 -9.674690 119.549294
7106    1 1 0.0 66.052376 -9.771656 115.023418
7107    1 1 0.0 58.522650 -9.422985 116.185856
7108    1 1 0.0 62.454446 -10.763961 115.373131
7109    1 2 0.0 60.278895 -8.898537 118.867084
7110    1 2 0.0 63.508672 -10.721630 113.717758
7111    1 2 0.0 64.115975 -6.874021 113.692548
7112    1 2 0.0 60.666738 -9.838089 115.352609
7113    1 2 0.0 61.735310 -11.975826 116.870971
7114    1 2 0.0 57.993922 -9.706489 118.084836
7115    1 2 0.0 63.987401 -10.350717 115.673356
7116    1 2 0.0 66.478415 -8.519779 113.394416
7117    1 1 0.0 50.723307 -10.492098 126.647874
7118    1 1 0.0 58.109636 -12.221640 122.121998
7119    1 1 0.0 50.832016 -10.258328 123.284436
7120    1 1 0.0 54.382397 -12.415185 122.471711
7121    1 2 0.0 52.660018 -10.124718 125.965664
7122    1 2 0.0 55.420971 -12.601059 120.816338
7123    1 2 0.0 56.843252 -8.974763 120.791128
7124    1 2 0.0 52.836250 -11.125779 122.451189
7125    1 2 0.0 53.418976 -13.443579 123.969551
7126    1 2 0.0 50.254612 -10.421217 125.183416
7127    1 2 0.0 55.968389 -12.342041 122.771936
7128    1 2 0.0 58.795472 -11.091005 120.492996
7129    1 1 0.0 42.985549 -9.621372 133.746454
7130    1 1 0.0 49.825532 -12.902197 129.220578
7131    1 1 0.0 43.142086 -9.416526 130.383016
7132    1 1 0.0 46.144175 -12.287885 129.570291
7133    1 2 0.0 44.955924 -9.680033 133.064244
7134    1 2 0.0 47.118280 -12.693228 127.914918
7135    1 2 0.0 49.288689 -9.458691 127.889708
7136    1 2 0.0 44.912261 -10.695550 129.549769
7137    1 2 0.0 44.981752 -13.084470 131.068131
7138    1 2 0.0 42.543146 -9.451142 132.281996
7139    1 2 0.0 47.708658 -12.558279 129.870516
7140    1 2 0.0 50.738928 -11.945947 127.591576
7141    1 1 0.0 35.617301 -7.103439 140.845034
7142    1 1 0.0 41.589439 -11.781338 136.319158
7143    1 1 0.0 35.814309 -6.937144 137.481596
7144    1 1 0.0 38.126998 -10.388044 136.668871
7145    1 2 0.0 37.528727 -7.585384 140.162824
7146    1 2 0.0 38.990850 -10.993804 135.013498
7147    1 2 0.0 41.807370 -8.303057 134.988288
7148    1 2 0.0 37.267223 -8.567624 136.648349
7149    1 2 0.0 36.820211 -10.915378 138.166711
7150    1 2 0.0 35.221984 -6.841861 139.380576
7151    1 2 0.0 39.596437 -10.989266 136.969096
7152    1 2 0.0 42.687464 -11.044421 134.690156
7153    1 1 0.0 28.964893 -3.056648 147.943614
7154    1 1 0.0 33.788478 -8.911748 143.417738
7155    1 1 0.0 29.193111 -2.936721 144.580176
7156    1 1 0.0 30.707698 -6.804959 143.767451
7157    1 2 0.0 30.727526 -3.939225 147.261404
7158    1 2 0.0 31.420692 -7.582664 142.112078
7159    1 2 0.0 34.750940 -5.562181 142.086868
7160    1 2 0.0 30.260471 -4.842021 143.746929
7161    1 2 0.0 29.317968 -7.038257 145.265291
7162    1 2 0.0 28.635242 -2.716017 146.479156
7163    1 2 0.0 32.013025 -7.708751 144.067676
7164    1 2 0.0 35.019521 -8.428799 141.788736
7165    1 1 0.0 23.341004 2.328790 155.042194
7166    1 1 0.0 26.789316 -4.428305 150.516318
7167    1 1 0.0 23.589706 2.396711 151.678756
7168    1 1 0.0 24.235001 -1.707047 150.866031
7169    1 2 0.0 24.871997 1.087065 154.359984
7170    1 2 0.0 24.763625 -2.620142 149.210658
7171    1 2 0.0 28.451070 -1.364890 149.185448
7172    1 2 0.0 24.221345 0.306148 150.845509
7173    1 2 0.0 22.827651 -1.635342 152.363871
7174    1 2 0.0 23.092515 2.732463 153.577736
7175    1 2 0.0 25.314863 -2.870928 151.166256
7176    1 2 0.0 28.095514 -4.222025 148.887316
7177    1 1 0.0 19.009975 8.799743 162.140774
7178    1 1 0.0 20.920932 1.458257 157.614898
7179    1 1 0.0 19.267471 8.812468 158.777336
7180    1 1 0.0 19.013142 4.666077 157.964611
7181    1 2 0.0 20.237366 7.257236 161.458564
7182    1 2 0.0 19.332549 3.660511 156.309238
7183    1 2 0.0 23.203871 4.091530 156.284028
7184    1 2 0.0 19.433699 6.634902 157.944089
7185    1 2 0.0 17.654321 5.039414 159.462451
7186    1 2 0.0 18.854327 9.247485 160.676316
7187    1 2 0.0 19.816782 3.296813 158.264836
7188    1 2 0.0 22.240891 1.378172 155.985896
7189    1 1 0.0 16.175375 16.052060 169.239354
7190    1 1 0.0 16.459157 8.471253 164.713478
7191    1 1 0.0 16.429562 16.008989 165.875916
7192    1 1 0.0 15.287565 12.014858 165.063191
7193    1 2 0.0 17.041474 14.281272 168.557144
7194    1 2 0.0 15.382742 10.964084 163.407818
7195    1 2 0.0 19.255977 10.550612 163.382608
7196    1 2 0.0 16.122566 13.846773 165.042669
7197    1 2 0.0 14.041141 12.672280 166.561031
7198    1 2 0.0 16.119884 16.522825 167.774896
7199    1 2 0.0 15.777209 10.504571 165.363416
7200    1 2 0.0 17.730835 8.108567 163.084476
7201    1 1 0.0 14.970439 23.744861 176.337934
7202    1 1 0.0 13.613708 16.281052 171.812058
7203    1 1 0.0 15.209369 23.648019 172.974496
7204    1 1 0.0 13.233380 19.993883 172.161771
7205    1 2 0.0 15.434536 21.829024 175.655724
7206    1 2 0.0 13.099854 18.947291 170.506398
7207    1 2 0.0 16.792949 17.708762 170.481188
7208    1 2 0.0 14.443579 21.602783 172.141249
7209    1 2 0.0 12.157939 20.904488 173.659611
7210    1 2 0.0 15.017713 24.216522 174.873476
7211    1 2 0.0 13.386015 18.413560 172.461996
7212    1 2 0.0 14.777332 15.652813 170.183056
7213    1 1 0.0 15.451802 31.516563 183.436514
7214    1 1 0.0 12.518327 24.520571 178.910638
7215    1 1 0.0 15.664245 31.370502 180.073076
7216    1 1 0.0 12.947142 28.228116 179.260351
7217    1 2 0.0 15.492084 29.545727 182.754304
7218    1 2 0.0 12.591188 27.234898 177.604978
7219    1 2 0.0 15.930558 25.229526 177.579768
7220    1 2 0.0 14.475656 29.538377 179.239829
7221    1 2 0.0 12.093232 29.349103 180.758191
7222    1 2 0.0 15.599619 31.966951 181.972056
7223    1 2 0.0 12.755592 26.652036 179.560576
7224    1 2 0.0 13.519205 23.656308 177.281636
7225    1 1 0.0 17.596838 39.001874 190.535094
7226    1 1 0.0 13.224502 32.802531 186.009218
7227    1 1 0.0 17.772809 38.813459 187.171656
7228    1 1 0.0 14.442303 36.330523 186.358931
7229    1 2 0.0 17.211412 37.068673 189.852884
7230    1 2 0.0 13.880652 35.437364 184.703558
7231    1 2 0.0 16.709337 32.759408 184.678348
7232    1 2 0.0 16.217287 37.280561 186.338409
7233    1 2 0.0 13.850061 37.609204 187.856771
7234    1 2 0.0 17.838251 39.409818 189.070636
7235    1 2 0.0 13.915572 34.832767 186.659156
7236    1 2 0.0 14.015588 31.742867 184.380216
7237    1 1 0.0 21.304726 45.848963 197.633674
7238    1 1 0.0 15.699040 40.737656 193.107798
7239    1 1 0.0 21.435953 45.627050 194.270236
7240    1 1 0.0 17.648587 43.920270 193.457511
7241    1 2 0.0 20.511707 44.044264 196.951464
7242    1 2 0.0 16.907639 43.169150 191.802138
7243    1 2 0.0 19.092683 39.944481 191.776928
7244    1 2 0.0 19.586612 44.465429 193.436989
7245    1 2 0.0 17.345849 45.296542 194.955351
7246    1 2 0.0 21.628386 46.195290 196.169216
7247    1 2 0.0 16.811432 42.571236 193.757736
7248    1 2 0.0 16.243152 39.532397 191.478796
7249    1 1 0.0 26.401183 51.735998 204.732254
7250    1 1 0.0 19.825631 47.952972 200.206378
7251    1 1 0.0 26.481499 51.491018 201.368816
7252    1 1 0.0 22.415290 50.640617 200.556091
7253    1 2 0.0 25.237846 50.144626 204.050044
7254    1 2 0.0 21.529871 50.066842 198.900718
7255    1 2 0.0 22.968570 46.447028 198.875508
7256    1 2 0.0 24.425263 50.755274 200.535569
7257    1 2 0.0 22.416286 52.049792 202.053931
7258    1 2 0.0 26.791879 52.004430 203.267796
7259    1 2 0.0 21.307060 49.503714 200.856316
7260    1 2 0.0 20.097193 46.658770 198.577376
7261    1 1 0.0 32.646662 56.386272 6.508958
7262    1 1 0.0 25.410313 54.109340 1.983082
7263    1 1 0.0 32.672291 56.129739 3.145520
7264    1 1 0.0 28.518362 56.175689 2.332795
7265    1 2 0.0 31.167687 55.083026 5.826748
7266    1 2 0.0 27.530090 55.806226 0.677422
7267    1 2 0.0 28.154822 51.961410 0.652212
7268    1 2 0.0 30.505810 55.854454 2.312273
7269    1 2 0.0 28.823046 57.551531 3.830635
7270    1 2 0.0 33.086030 56.564191 5.044500
7271    1 2 0.0 27.191149 55.304354 2.633020
7272    1 2 0.0 25.396562 52.787025 0.354080
7273    1 1 0.0 39.747609 59.581208 13.607538
7274    1 1 0.0 32.190591 58.917393 9.081662
7275    1 1 0.0 39.717346 59.325181 10.244100
7276    1 1 0.0 35.670944 60.265321 9.431375
7277    1 2 0.0 38.022510 58.627346 12.925328
7278    1 2 0.0 34.626269 60.117538 7.776002
7279    1 2 0.0 34.407670 56.228435 7.750792
7280    1 2 0.0 37.542450 59.523293 9.410853
7281    1 2 0.0 36.264994 61.543163 10.929215
7282    1 2 0.0 40.214996 59.660252 12.143080
7283    1 2 0.0 34.187128 59.700510 9.731600
7284    1 2 0.0 31.892172 57.629118 7.452660
7285    1 1 0.0 47.370258 61.170637 20.706118
7286    1 1 0.0 39.847772 62.151139 16.180242
7287    1 1 0.0 47.285526 60.927149 17.342680
7288    1 1 0.0 43.536843 62.717290 16.529955
7289    1 2 0.0 45.480121 60.610991 20.023908
7290    1 2 0.0 42.484869 62.798132 14.874582
7291    1 2 0.0 41.433212 59.047542 14.849372
7292    1 2 0.0 45.204441 61.589347 16.509433
7293    1 2 0.0 44.392337 63.837069 18.027795
7294    1 2 0.0 47.843696 61.147090 19.241660
7295    1 2 0.0 41.966168 62.485551 16.830180
7296    1 2 0.0 39.278713 60.957457 14.551240
7297    1 1 0.0 55.156323 61.079850 27.804698
7298    1 1 0.0 48.021948 63.658583 23.278822
7299    1 1 0.0 55.021106 60.860345 24.441260
7300    1 1 0.0 51.746339 63.416346 23.628535
7301    1 2 0.0 53.189991 60.940725 27.122488
7302    1 2 0.0 50.736511 63.722014 21.973162
7303    1 2 0.0 48.901229 60.286225 21.947952
7304    1 2 0.0 53.131648 61.955505 23.608013
7305    1 2 0.0 52.823067 64.325430 25.126375
7306    1 2 0.0 55.613560 60.954819 26.340240
7307    1 2 0.0 50.162633 63.528571 23.928760
7308    1 2 0.0 47.208996 62.615599 21.649820
7309    1 1 0.0 61.738926 54.450831 33.854383
7310    1 1 0.0 56.471108 58.375343 28.986255
7311    1 1 0.0 61.967460 54.269131 30.379391
7312    1 1 0.0 60.074920 57.374620 29.089094
7313    1 2 0.0 59.851043 54.701074 33.283198
7314    1 2 0.0 59.564515 57.915719 27.233218
7315    1 2 0.0 56.188105 54.922890 28.150631
7316    1 2 0.0 60.719188 55.695065 29.371970
7317    1 2 0.0 61.447474 57.987145 30.291017
7318    1 2 0.0 62.346062 54.235437 32.302267
7319    1 2 0.0 58.449536 57.802162 29.548150
7320    1 2 0.0 55.507831 57.551660 27.491327
7321    1 1 0.0 67.739030 51.421179 40.952963
7322    1 1 0.0 63.440839 56.388800 36.084835
7323    1 1 0.0 67.923032 51.194495 37.477971
7324    1 1 0.0 66.744276 54.634888 36.187674
7325    1 2 0.0 65.949448 52.072425 40.381778
7326    1 2 0.0 66.362486 55.273275 34.331798
7327    1 2 0.0 62.420401 53.078479 35.249211
7328    1 2 0.0 67.011420 52.855950 36.470550
7329    1 2 0.0 68.216587 54.937199 37.389597
7330    1 2 0.0 68.285475 51.079995 39.400847
7331    1 2 0.0 65.249237 55.402691 36.646730
7332    1 2 0.0 62.322677 55.792083 34.589907
7333    1 1 0.0 72.945161 47.169563 48.051543
7334    1 1 0.0 69.818623 52.946800 43.183415
7335    1 1 0.0 73.075983 46.908550 44.576551
7336    1 1 0.0 72.666415 50.522139 43.286254
7337    1 2 0.0 71.337995 48.191202 47.480358
7338    1 2 0.0 72.431186 51.227808 41.430378
7339    1 2 0.0 68.108714 49.934205 42.347791
7340    1 2 0.0 72.543877 48.727432 43.569130
7341    1 2 0.0 74.169281 50.500027 44.488177
7342    1 2 0.0 73.405230 46.718626 46.499427
7343    1 2 0.0 71.371992 51.594114 43.745310
7344    1 2 0.0 68.598134 52.605098 41.688487
7345    1 1 0.0 77.112617 41.895822 55.150123
7346    1 1 0.0 75.304689 48.211129 50.281995
7347    1 1 0.0 77.184110 41.612747 51.675131
7348    1 1 0.0 77.562981 45.229683 50.384834
7349    1 2 0.0 75.763409 43.239833 54.578938
7350    1 2 0.0 77.485369 45.969466 48.528958
7351    1 2 0.0 72.985679 45.637860 49.446371
7352    1 2 0.0 77.056521 43.503565 50.667710
7353    1 2 0.0 79.025762 44.884188 51.586757
7354    1 2 0.0 77.464686 41.356326 53.598007
7355    1 2 0.0 76.530015 46.555445 50.843890
7356    1 2 0.0 74.039237 48.140501 48.787067
7357    1 1 0.0 80.045514 35.847835 62.248703
7358    1 1 0.0 79.641174 42.404375 57.380575
7359    1 1 0.0 80.054318 35.556005 58.773711
7360    1 1 0.0 81.203821 39.006281 57.483414
7361    1 2 0.0 79.017681 37.451046 61.677518
7362    1 2 0.0 81.287473 39.745405 55.627538
7363    1 2 0.0 76.822064 40.391383 56.544951
7364    1 2 0.0 80.337244 37.429883 57.766290
7365    1 2 0.0 82.557762 38.353642 58.685337
7366    1 2 0.0 80.273035 35.245139 60.696587
7367    1 2 0.0 80.480864 40.523514 57.942470
7368    1 2 0.0 78.390240 42.608142 55.885647
7369    1 1 0.0 81.606000 29.309875 69.347283
7370    1 1 0.0 82.624252 35.799472 64.479155
7371    1 1 0.0 81.551700 29.023006 65.872291
7372    1 1 0.0 83.417805 32.144451 64.581994
7373    1 2 0.0 80.947852 31.096931 68.776098
7374    1 2 0.0 83.658790 32.848175 62.726118
7375    1 2 0.0 79.437548 34.441373 63.643531
7376    1 2 0.0 82.231843 30.791868 64.864870
7377    1 2 0.0 84.599267 31.215343 65.783917
7378    1 2 0.0 81.698279 28.672307 67.795167
7379    1 2 0.0 83.038838 33.781841 65.041050
7380    1 2 0.0 81.446634 36.268056 62.984227
7381    1 1 0.0 81.720726 22.589245 76.445863
7382    1 1 0.0 84.113711 28.706869 71.577735
7383    1 1 0.0 81.605876 22.320820 72.970871
7384    1 1 0.0 84.100870 24.966717 71.680574
7385    1 2 0.0 81.463199 24.476149 75.874678
7386    1 2 0.0 84.487861 25.601965 69.824698
7387    1 2 0.0 80.709195 28.067498 70.742111
7388    1 2 0.0 82.651266 23.901525 71.963450
7389    1 2 0.0 85.054322 23.804811 72.882497
7390    1 2 0.0 81.673425 21.946772 74.893747
7391    1 2 0.0 84.083706 26.647303 72.139630
7392    1 2 0.0 83.064759 29.418246 70.082807
7393    1 1 0.0 80.384301 16.001832 83.544443
7394    1 1 0.0 84.039540 21.459939 78.676315
7395    1 1 0.0 80.214298 15.764469 80.069451
7396    1 1 0.0 83.220910 17.810453 78.779154
7397    1 2 0.0 80.539499 17.899895 82.973258
7398    1 2 0.0 83.735717 18.347366 76.923278
7399    1 2 0.0 80.577236 21.569348 77.840691
7400    1 2 0.0 81.575799 17.082719 79.062030
7401    1 2 0.0 83.901536 16.470363 79.981077
7402    1 2 0.0 80.199644 15.384653 81.992327
7403    1 2 0.0 83.566355 19.455242 79.238210
7404    1 2 0.0 83.168559 22.380672 77.181387
7405    1 1 0.0 77.659540 9.857265 90.643023
7406    1 1 0.0 82.405227 14.399308 85.774895
7407    1 1 0.0 77.442374 9.662120 87.168031
7408    1 1 0.0 80.819285 11.012024 85.877734
7409    1 2 0.0 78.220167 11.677271 90.071838
7410    1 2 0.0 81.437711 11.425365 84.021858
7411    1 2 0.0 79.047873 15.252354 84.939271
7412    1 2 0.0 79.055993 10.655953 86.160610
7413    1 2 0.0 81.195094 9.556736 87.079657
7414    1 2 0.0 77.346205 9.294388 89.090907
7415    1 2 0.0 81.511103 12.543706 86.336790
7416    1 2 0.0 81.753155 15.486118 84.279967
7417    1 1 0.0 73.674514 4.444354 97.741603
7418    1 1 0.0 79.287589 7.856844 92.873475
7419    1 1 0.0 73.420394 4.300599 94.266611
7420    1 1 0.0 77.008879 4.890974 92.976314
7421    1 2 0.0 74.614221 6.100759 97.170418
7422    1 2 0.0 77.701856 5.161316 91.120438
7423    1 2 0.0 76.192989 9.413432 92.037851
7424    1 2 0.0 75.210284 4.923303 93.259190
7425    1 2 0.0 77.062206 3.388892 94.178237
7426    1 2 0.0 73.247230 3.962237 96.189487
7427    1 2 0.0 78.014552 6.237557 93.435370
7428    1 2 0.0 78.885075 9.058650 91.378547
7429    1 1 0.0 68.616531 0.017522 104.840183
7430    1 1 0.0 74.833164 2.140062 99.972055
7431    1 1 0.0 68.337400 -0.068085 101.365191
7432    1 1 0.0 71.968791 -0.264989 100.074894
7433    1 2 0.0 69.891148 1.432470 104.268998
7434    1 2 0.0 72.703747 -0.150353 98.219018
7435    1 2 0.0 72.146772 4.327029 99.136431
7436    1 2 0.0 70.219433 0.154220 100.357770
7437    1 2 0.0 71.697131 -1.743263 101.276817
7438    1 2 0.0 68.095381 -0.361175 103.288067
7439    1 2 0.0 73.241050 0.833201 100.533950
7440    1 2 0.0 74.699127 3.400376 98.477127
7441    1 1 0.0 62.723330 -3.215158 111.938763
7442    1 1 0.0 69.251321 -2.482332 107.070635
7443    1 1 0.0 62.432309 -3.238594 108.463771
7444    1 1 0.0 65.935919 -4.213521 107.173474
7445    1 2 0.0 64.272946 -2.108173 111.367578
7446    1 2 0.0 66.678310 -4.259980 105.317598
7447    1 2 0.0 67.099407 0.232219 106.235011
7448    1 2 0.0 64.318024 -3.427136 107.456350
7449    1 2 0.0 65.352040 -5.598504 108.375397
7450    1 2 0.0 62.132810 -3.472634 110.386647
7451    1 2 0.0 67.414964 -3.415342 107.632530
7452    1 2 0.0 69.392062 -1.222750 105.575707
7453    1 1 0.0 56.271908 -5.101741 119.037343
7454    1 1 0.0 62.804424 -5.793074 114.169215
7455    1 1 0.0 55.982675 -5.061904 115.562351
7456    1 1 0.0 59.193826 -6.769030 114.272054
7457    1 2 0.0 58.023688 -4.354751 118.466158
7458    1 2 0.0 59.908756 -6.974400 112.416178
7459    1 2 0.0 61.288133 -2.678531 113.333591
7460    1 2 0.0 57.783438 -5.652431 114.554930
7461    1 2 0.0 58.325172 -7.995624 115.473977
7462    1 2 0.0 55.639774 -5.225895 117.485227
7463    1 2 0.0 60.810138 -6.308379 114.731110
7464    1 2 0.0 63.213327 -4.593427 112.674287
7465    1 1 0.0 49.565500 -5.553551 126.135923
7466    1 1 0.0 55.795494 -7.636550 121.267795
7467    1 1 0.0 49.291651 -5.452314 122.660931
7468    1 1 0.0 52.059409 -7.811399 121.370634
7469    1 2 0.0 51.437105 -5.201667 125.564738
7470    1 2 0.0 52.713275 -8.166027 119.514758
7471    1 2 0.0 54.986096 -4.268406 120.432171
7472    1 2 0.0 50.922820 -6.417070 121.653510
7473    1 2 0.0 50.946810 -8.821952 122.572557
7474    1 2 0.0 48.921464 -5.538547 124.583807
7475    1 2 0.0 53.737016 -7.709928 121.829690
7476    1 2 0.0 56.453340 -6.553224 119.772867
7477    1 1 0.0 42.919327 -4.549353 133.234503
7478    1 1 0.0 48.553971 -7.926110 128.366375
7479    1 1 0.0 42.673732 -4.391474 129.759511
7480    1 1 0.0 44.868005 -7.291635 128.469214
7481    1 2 0.0 44.822786 -4.609114 132.663318
7482    1 2 0.0 45.430074 -7.778853 126.613338
7483    1 2 0.0 48.489511 -4.462678 127.530751
7484    1 2 0.0 44.058639 -5.685113 128.752090
7485    1 2 0.0 43.563755 -8.038647 129.671137
7486    1 2 0.0 42.293660 -4.395897 131.682387
7487    1 2 0.0 46.528056 -7.554113 128.928270
7488    1 2 0.0 49.429840 -7.010026 126.871447
7489    1 1 0.0 36.645776 -2.136347 140.333083
7490    1 1 0.0 41.420227 -6.648145 135.464955
7491    1 1 0.0 36.439980 -1.929247 136.858091
7492    1 1 0.0 37.957631 -5.234168 135.567794
7493    1 2 0.0 38.491621 -2.604944 139.761898
7494    1 2 0.0 38.401483 -5.831074 133.711918
7495    1 2 0.0 42.103734 -3.252215 134.629331
7496    1 2 0.0 37.513530 -3.490964 135.850670
7497    1 2 0.0 36.523034 -5.682527 136.769717
7498    1 2 0.0 36.067887 -1.851651 138.780967
7499    1 2 0.0 39.522098 -5.848258 136.026850
7500    1 2 0.0 42.472949 -5.942360 133.970027
7501    1 1 0.0 31.039723 1.572049 147.431663
7502    1 1 0.0 34.729568 -3.862723 142.563535
7503    1 1 0.0 30.883398 1.818636 143.956671
7504    1 1 0.0 31.653093 -1.735705 142.666374
7505    1 2 0.0 32.741195 0.716642 146.860478
7506    1 2 0.0 31.957867 -2.414243 140.810498
7507    1 2 0.0 36.128915 -0.693914 141.727911
7508    1 2 0.0 31.595131 0.062246 142.949250
7509    1 2 0.0 30.155579 -1.864337 143.868297
7510    1 2 0.0 30.536773 1.974603 145.879547
7511    1 2 0.0 33.048442 -2.672542 143.125430
7512    1 2 0.0 35.909663 -3.400412 141.068607
7513    1 1 0.0 26.364668 6.401531 154.530243
7514    1 1 0.0 28.796474 0.299234 149.662115
7515    1 1 0.0 26.265162 6.676014 151.055251
7516    1 1 0.0 26.250723 3.039318 149.764954
7517    1 2 0.0 27.841791 5.199519 153.959058
7518    1 2 0.0 26.402093 2.311040 147.909078
7519    1 2 0.0 30.845887 3.091979 148.826491
7520    1 2 0.0 26.581624 4.807506 150.047830
7521    1 2 0.0 24.760680 3.236459 150.966877
7522    1 2 0.0 25.960298 6.903022 152.978127
7523    1 2 0.0 27.411369 1.823767 150.224010
7524    1 2 0.0 30.048474 0.496342 148.167187
7525    1 1 0.0 22.840350 12.125098 161.628823
7526    1 1 0.0 23.899816 5.642102 156.760695
7527    1 1 0.0 22.802341 12.414576 158.153831
7528    1 1 0.0 22.004447 8.866460 156.863534
7529    1 2 0.0 24.023697 10.632980 161.057638
7530    1 2 0.0 21.995298 8.122673 155.007658
7531    1 2 0.0 26.502968 7.927516 155.925071
7532    1 2 0.0 22.708658 10.521776 157.146410
7533    1 2 0.0 20.591910 9.380107 158.065457
7534    1 2 0.0 22.553567 12.701955 160.076707
7535    1 2 0.0 22.875836 7.429329 157.322590
7536    1 2 0.0 25.164873 5.564742 155.265767
7537    1 1 0.0 20.632424 18.473728 168.727403
7538    1 1 0.0 20.269751 11.914751 163.859275
7539    1 1 0.0 20.657698 18.764595 165.252411
7540    1 1 0.0 19.113852 15.471829 163.962114
7541    1 2 0.0 21.466374 16.761637 168.156218
7542    1 2 0.0 18.944614 14.747494 162.106238
7543    1 2 0.0 23.304286 13.585414 163.023651
7544    1 2 0.0 20.158273 16.936469 164.244990
7545    1 2 0.0 17.845215 16.277840 165.164037
7546    1 2 0.0 20.476707 19.098836 167.175287
7547    1 2 0.0 19.655026 13.880668 164.421170
7548    1 2 0.0 21.488405 11.566559 162.364347
7549    1 1 0.0 19.844668 25.149016 175.825983
7550    1 1 0.0 18.076903 18.822349 170.957855
7551    1 1 0.0 19.932036 25.427600 172.350991
7552    1 1 0.0 17.714804 22.544955 171.060694
7553    1 2 0.0 20.290023 23.297426 175.254798
7554    1 2 0.0 17.393432 21.874118 169.204818
7555    1 2 0.0 21.400190 19.799735 170.122231
7556    1 2 0.0 19.050344 23.750076 171.343570
7557    1 2 0.0 16.649696 23.605445 172.262617
7558    1 2 0.0 19.827336 25.792994 174.273867
7559    1 2 0.0 17.900326 20.874552 171.519750
7560    1 2 0.0 19.191873 18.219691 169.462927
7561    1 1 0.0 20.514108 31.837206 182.924563
7562    1 1 0.0 17.424341 26.040220 178.056435
7563    1 1 0.0 20.659465 32.090413 179.449571
7564    1 1 0.0 17.873062 29.753380 178.159274
7565    1 2 0.0 20.549935 29.933146 182.353378
7566    1 2 0.0 17.414662 29.167572 176.303398
7567    1 2 0.0 20.880176 26.278388 177.220811
7568    1 2 0.0 19.436948 30.642339 178.442150
7569    1 2 0.0 17.061546 31.018503 179.361197
7570    1 2 0.0 20.635976 32.469785 181.372447
7571    1 2 0.0 17.694213 28.082250 178.618330
7572    1 2 0.0 18.383221 25.211423 176.561507
7573    1 1 0.0 22.609280 38.223934 190.023143
7574    1 1 0.0 18.342738 33.229104 185.155015
7575    1 1 0.0 22.805793 38.439863 186.548151
7576    1 1 0.0 19.581187 36.758289 185.257854
7577    1 2 0.0 22.233894 36.356901 189.451958
7578    1 2 0.0 19.007305 36.285044 183.401978
7579    1 2 0.0 21.768687 32.716860 184.319391
7580    1 2 0.0 21.299911 37.289301 185.540730
7581    1 2 0.0 19.061408 38.168581 186.459777
7582    1 2 0.0 22.864620 38.815381 188.471027
7583    1 2 0.0 19.046373 35.164979 185.716910
7584    1 2 0.0 19.100457 32.213123 183.660087
7585    1 1 0.0 26.031703 44.009005 197.121723
7586    1 1 0.0 20.788927 40.051102 192.253595
7587    1 1 0.0 26.270136 44.177506 193.646731
7588    1 1 0.0 22.758894 43.230431 192.356434
7589    1 2 0.0 25.262750 42.266755 196.550538
7590    1 2 0.0 22.096503 42.891993 190.500558
7591    1 2 0.0 24.023960 38.812523 191.417971
7592    1 2 0.0 24.551672 43.378538 192.639310
7593    1 2 0.0 22.555282 44.719604 193.558357
7594    1 2 0.0 26.408513 44.531521 195.569607
7595    1 2 0.0 21.893253 41.789831 192.815490
7596    1 2 0.0 21.309871 38.895691 190.758667
7597    1 1 0.0 30.620516 48.920506 204.220303
7598    1 1 0.0 24.647929 46.185562 199.352175
7599    1 1 0.0 30.889660 49.033659 200.745311
7600    1 1 0.0 27.256821 48.865597 199.455014
7601    1 2 0.0 29.494137 47.384928 203.649118
7602    1 2 0.0 26.537055 48.677875 197.599138
7603    1 2 0.0 27.539992 44.278865 198.516551
7604    1 2 0.0 29.039386 48.623838 199.737890
7605    1 2 0.0 27.378945 50.363656 200.656937
7606    1 2 0.0 31.101084 49.349530 202.668187
7607    1 2 0.0 26.101040 47.645420 199.914070
7608    1 2 0.0 24.907612 44.945029 197.857247
7609    1 1 0.0 36.160029 52.727581 5.997007
7610    1 1 0.0 29.738362 51.344146 1.128879
7611    1 1 0.0 36.447236 52.780068 2.522015
7612    1 1 0.0 32.863552 53.398920 1.231718
7613    1 2 0.0 34.729169 51.470853 5.425822
7614    1 2 0.0 32.120243 53.370735 204.697718
7615    1 2 0.0 32.151518 48.858951 0.293255
7616    1 2 0.0 34.552119 52.778656 1.514594
7617    1 2 0.0 33.305674 54.835451 2.433641
7618    1 2 0.0 36.721769 53.042949 4.444891
7619    1 2 0.0 31.471956 52.456516 1.690774
7620    1 2 0.0 29.724577 50.076800 204.955827
7621    1 1 0.0 42.389872 55.251288 13.095587
7622    1 1 0.0 35.820959 55.284388 8.227459
7623    1 1 0.0 42.681641 55.240642 9.620595
7624    1 1 0.0 39.315556 56.617318 8.330298
7625    1 2 0.0 40.721784 54.332480 12.524402
7626    1 2 0.0 38.583641 56.749997 6.474422
7627    1 2 0.0 37.641785 52.337506 7.391835
7628    1 2 0.0 40.830758 55.647706 8.613174
7629    1 2 0.0 40.056893 57.924801 9.532221
7630    1 2 0.0 43.006379 55.438176 11.543471
7631    1 2 0.0 37.753554 55.996985 8.789354
7632    1 2 0.0 35.534355 54.049797 6.732531
7633    1 1 0.0 49.017223 56.373006 20.194167
7634    1 1 0.0 42.609823 57.821084 15.326039
7635    1 1 0.0 49.299841 56.299726 16.719175
7636    1 1 0.0 46.309569 58.369520 15.428878
7637    1 2 0.0 47.190312 55.835303 19.622982
7638    1 2 0.0 45.623452 58.656825 13.573002
7639    1 2 0.0 43.752734 54.551027 14.490415
7640    1 2 0.0 47.580188 57.096133 15.711754
7641    1 2 0.0 47.315279 59.486500 16.630801
7642    1 2 0.0 49.659520 56.422629 18.642051
7643    1 2 0.0 44.650580 58.100414 15.887934
7644    1 2 0.0 42.063871 56.677278 13.831111
7645    1 1 0.0 55.730579 56.040009 27.292747
7646    1 1 0.0 49.785857 58.835003 22.424619
7647    1 1 0.0 55.990761 55.907541 23.817755
7648    1 1 0.0 53.516855 58.573167 22.527458
7649    1 2 0.0 53.830716 55.908686 26.721562
7650    1 2 0.0 52.908783 59.001595 20.671582
7651    1 2 0.0 50.197133 55.395472 21.588995
7652    1 2 0.0 54.483167 57.055857 22.810334
7653    1 2 0.0 54.739665 59.447141 23.729381
7654    1 2 0.0 56.368476 55.950037 25.740631
7655    1 2 0.0 51.838856 58.667936 22.986514
7656    1 2 0.0 49.006219 57.835743 20.929691
7657    1 1 0.0 60.594676 49.540554 33.980891
7658    1 1 0.0 56.469850 53.325956 28.816917
7659    1 1 0.0 60.958195 49.365798 30.631449
7660    1 1 0.0 59.800232 52.372100 28.922408
7661    1 2 0.0 58.882097 49.739848 33.418170
7662    1 2 0.0 59.557163 52.921816 26.998102
7663    1 2 0.0 55.808889 49.886382 28.392347
7664    1 2 0.0 60.090184 50.730741 29.449675
7665    1 2 0.0 61.179861 52.977994 29.948418
7666    1 2 0.0 61.224744 49.341552 32.485162
7667    1 2 0.0 58.249153 52.771158 29.386849
7668    1 2 0.0 55.570860 52.509384 27.435137
7669    1 1 0.0 65.563390 46.872914 41.079471
7670    1 1 0.0 62.351347 51.458351 35.915497
7671    1 1 0.0 65.880702 46.623917 37.730029
7672    1 1 0.0 65.397882 49.809136 36.020988
7673    1 2 0.0 63.934011 47.436625 40.516750
7674    1 2 0.0 65.279002 50.398320 34.096682
7675    1 2 0.0 60.964609 48.242065 35.490927
7676    1 2 0.0 65.327268 48.143860 36.548255
7677    1 2 0.0 66.875672 50.103448 37.046998
7678    1 2 0.0 66.135761 46.542794 39.583742
7679    1 2 0.0 63.969262 50.533110 36.485429
7680    1 2 0.0 61.297495 50.854724 34.533717
7681    1 1 0.0 69.840392 43.197091 48.178051
7682    1 1 0.0 67.692108 48.367036 43.014077
7683    1 1 0.0 70.096582 42.885558 44.828609
7684    1 1 0.0 70.311600 46.099979 43.119568
7685    1 2 0.0 68.370799 44.098724 47.615330
7686    1 2 0.0 70.322497 46.700937 41.195262
7687    1 2 0.0 65.644774 45.525212 42.589507
7688    1 2 0.0 69.883738 44.489058 43.646835
7689    1 2 0.0 71.818091 46.068875 44.145578
7690    1 2 0.0 70.328163 42.751370 46.682322
7691    1 2 0.0 69.072588 47.114840 43.584009
7692    1 2 0.0 66.532926 48.004725 41.632297
7693    1 1 0.0 73.224652 38.685860 55.276631
7694    1 1 0.0 72.241101 44.197310 50.112657
7695    1 1 0.0 73.407678 38.326433 51.927189
7696    1 1 0.0 74.310427 41.418969 50.218148
7697    1 2 0.0 71.983920 39.883035 54.713910
7698    1 2 0.0 74.450588 42.003455 48.293842
7699    1 2 0.0 69.629402 41.863522 49.688087
7700    1 2 0.0 73.545429 39.938121 50.745415
7701    1 2 0.0 75.774810 41.063912 51.244158
7702    1 2 0.0 73.604896 38.145487 53.780902
7703    1 2 0.0 73.319260 42.677016 50.682589
7704    1 2 0.0 71.031075 44.093345 48.730877
7705    1 1 0.0 75.557099 33.551260 62.375211
7706    1 1 0.0 75.784512 39.145162 57.211237
7707    1 1 0.0 75.658359 33.160834 59.025769
7708    1 1 0.0 77.206407 35.986127 57.316728
7709    1 2 0.0 74.603546 34.987708 61.812490
7710    1 2 0.0 77.469245 36.526669 55.392422
7711    1 2 0.0 72.731204 37.429104 56.786667
7712    1 2 0.0 76.140230 34.704957 57.843995
7713    1 2 0.0 78.559851 35.323805 58.342738
7714    1 2 0.0 75.811944 32.941635 60.879482
7715    1 2 0.0 76.509673 37.428228 57.781169
7716    1 2 0.0 74.580516 39.304430 55.829457
7717    1 1 0.0 76.728102 28.034633 69.473791
7718    1 1 0.0 78.155789 33.448057 64.309817
7719    1 1 0.0 76.742837 27.631559 66.124349
7720    1 1 0.0 78.863421 30.056812 64.415308
7721    1 2 0.0 76.106548 29.642835 68.911070
7722    1 2 0.0 79.236582 30.528003 62.491002
7723    1 2 0.0 74.804388 32.430390 63.885247
7724    1 2 0.0 77.546178 29.035538 64.942575
7725    1 2 0.0 80.042311 29.118356 65.441318
7726    1 2 0.0 76.845570 27.384410 67.978062
7727    1 2 0.0 78.493868 31.615185 64.879749
7728    1 2 0.0 77.014415 33.863072 62.928037
7729    1 1 0.0 76.682621 22.395276 76.572371
7730    1 1 0.0 79.243477 27.373776 71.408397
7731    1 1 0.0 76.610137 21.998498 73.222929
7732    1 1 0.0 79.203584 23.909719 71.513888
7733    1 2 0.0 76.422280 24.099643 76.009650
7734    1 2 0.0 79.669528 24.289411 69.589582
7735    1 2 0.0 75.751507 27.102332 70.983827
7736    1 2 0.0 77.697189 23.196343 72.041155
7737    1 2 0.0 80.152510 22.739239 72.539898
7738    1 2 0.0 76.657190 21.735017 75.076642
7739    1 2 0.0 79.178583 25.511115 71.978329
7740    1 2 0.0 78.218372 28.025030 70.026617
7741    1 1 0.0 75.422794 16.898253 83.670951
7742    1 1 0.0 78.996451 21.207827 78.506977
7743    1 1 0.0 75.266498 16.526423 80.321509
7744    1 1 0.0 78.210909 17.833777 78.612468
7745    1 2 0.0 75.535902 18.618675 83.108230
7746    1 2 0.0 78.747735 18.104124 76.688162
7747    1 2 0.0 75.528044 21.695364 78.082407
7748    1 2 0.0 76.586167 17.461831 79.139735
7749    1 2 0.0 78.885267 16.486289 79.638478
7750    1 2 0.0 75.255658 16.258992 82.175222
7751    1 2 0.0 78.531634 19.402927 79.076909
7752    1 2 0.0 78.135798 22.064710 77.125197
7753    1 1 0.0 73.007835 11.801941 90.769531
7754    1 1 0.0 77.426321 15.240026 85.605557
7755    1 1 0.0 72.775074 11.472535 87.420089
7756    1 1 0.0 75.932053 12.114574 85.711048
7757    1 2 0.0 73.489077 13.457553 90.206810
7758    1 2 0.0 76.514529 12.262868 83.786742
7759    1 2 0.0 74.144503 16.463630 85.180987
7760    1 2 0.0 74.265331 12.101539 86.238315
7761    1 2 0.0 76.300147 10.653414 86.737058
7762    1 2 0.0 72.706851 11.213726 89.273802
7763    1 2 0.0 76.583430 13.577722 86.175489
7764    1 2 0.0 76.770574 16.262262 84.223777
7765    1 1 0.0 69.551254 7.345881 97.868111
7766    1 1 0.0 74.606889 9.750877 92.704137
7767    1 1 0.0 69.252969 7.074381 94.518669
7768    1 1 0.0 72.474129 7.020928 92.809628
7769    1 2 0.0 70.378010 8.858864 97.305390
7770    1 2 0.0 73.074877 7.040199 90.885322
7771    1 2 0.0 71.665914 11.653034 92.279567
7772    1 2 0.0 70.843769 7.367417 93.336895
7773    1 2 0.0 72.518658 5.514774 93.835638
7774    1 2 0.0 69.130570 6.836358 96.372382
7775    1 2 0.0 73.425541 8.309303 93.274069
7776    1 2 0.0 74.186869 10.890418 91.322357
7777    1 1 0.0 65.215521 3.739519 104.966691
7778    1 1 0.0 70.670676 4.998385 99.802717
7779    1 1 0.0 64.865731 3.538688 101.617249
7780    1 1 0.0 67.999670 2.792254 99.908208
7781    1 2 0.0 66.348931 5.038760 104.403970
7782    1 2 0.0 68.590453 2.681597 97.983902
7783    1 2 0.0 68.208777 7.489689 99.378147
7784    1 2 0.0 66.482302 3.481982 100.435475
7785    1 2 0.0 67.718540 1.311900 100.934218
7786    1 2 0.0 64.694910 3.332638 103.470962
7787    1 2 0.0 69.206397 3.845299 100.372649
7788    1 2 0.0 70.506125 6.201670 98.420937
7789    1 1 0.0 60.204428 1.152365 112.065271
7790    1 1 0.0 65.802694 1.205931 106.901297
7791    1 1 0.0 59.819575 1.031642 108.715829
7792    1 1 0.0 62.718987 -0.372687 107.006788
7793    1 2 0.0 61.591218 2.176795 111.502550
7794    1 2 0.0 63.272037 -0.608072 105.082482
7795    1 2 0.0 63.935589 4.169283 106.476727
7796    1 2 0.0 61.385931 0.627860 107.534055
7797    1 2 0.0 62.125412 -1.757661 108.032798
7798    1 2 0.0 59.608359 0.867251 110.569542
7799    1 2 0.0 64.124310 0.395530 107.471229
7800    1 2 0.0 65.901347 2.416401 105.519517
7801    1 1 0.0 54.753509 -0.293977 119.163851
7802    1 1 0.0 60.231752 -1.448230 113.999877
7803    1 1 0.0 54.351681 -0.328918 115.814409
7804    1 1 0.0 56.880287 -2.325136 114.105368
7805    1 2 0.0 56.328497 0.407491 118.601130
7806    1 2 0.0 57.369609 -2.674184 112.181062
7807    1 2 0.0 59.047200 1.847885 113.575307
7808    1 2 0.0 55.794202 -1.060798 114.632635
7809    1 2 0.0 56.002168 -3.549632 115.131378
7810    1 2 0.0 54.109999 -0.443923 117.668122
7811    1 2 0.0 58.418153 -1.877853 114.569809
7812    1 2 0.0 60.588972 -0.287469 112.618097
7813    1 1 0.0 49.118973 -0.531525 126.262431
7814    1 1 0.0 54.219701 -2.839343 121.098457
7815    1 1 0.0 48.719059 -0.479042 122.912989
7816    1 1 0.0 50.758006 -2.973321 121.203948
7817    1 2 0.0 50.808130 -0.185990 125.699710
7818    1 2 0.0 51.160600 -3.419626 119.279642
7819    1 2 0.0 53.773378 0.634608 120.673887
7820    1 2 0.0 49.969940 -1.504619 121.731215
7821    1 2 0.0 49.636616 -3.979783 122.229958
7822    1 2 0.0 48.458270 -0.539256 124.766702
7823    1 2 0.0 52.356130 -2.867996 121.668389
7824    1 2 0.0 54.818697 -1.782851 119.716677
7825    1 1 0.0 43.565659 0.450885 133.361011
7826    1 1 0.0 48.049124 -2.902024 128.197037
7827    1 1 0.0 43.186455 0.588326 130.011569
7828    1 1 0.0 44.639908 -2.286775 128.302528
7829    1 2 0.0 45.289590 0.424247 132.798290
7830    1 2 0.0 44.936851 -2.809360 126.378222
7831    1 2 0.0 48.362009 0.586477 127.772467
7832    1 2 0.0 44.186903 -0.682743 128.829795
7833    1 2 0.0 43.327955 -3.027898 129.328538
7834    1 2 0.0 42.918818 0.585733 131.865282
7835    1 2 0.0 46.223174 -2.528359 128.766969
7836    1 2 0.0 48.861742 -1.999459 126.815257
7837    1 1 0.0 38.354589 2.607079 140.459591
7838    1 1 0.0 42.010054 -1.633325 135.295617
7839    1 1 0.0 38.013918 2.823017 137.110149
7840    1 1 0.0 38.813560 -0.297769 135.401108
7841    1 2 0.0 40.032263 2.209518 139.896870
7842    1 2 0.0 38.990895 -0.872070 133.476802
7843    1 2 0.0 43.067441 1.705757 134.871047
7844    1 2 0.0 38.716909 1.366199 135.928375
7845    1 2 0.0 37.372711 -0.738717 136.427118
7846    1 2 0.0 37.752012 2.878167 138.963862
7847    1 2 0.0 40.307550 -0.874907 135.865549
7848    1 2 0.0 42.998099 -0.927110 133.913837
7849    1 1 0.0 33.730697 5.835708 147.558171
7850    1 1 0.0 36.386346 0.907120 142.394197
7851    1 1 0.0 33.444573 6.119994 144.208729
7852    1 1 0.0 33.552819 2.900209 142.499688
7853    1 2 0.0 35.283260 5.085912 146.995450
7854    1 2 0.0 33.602210 2.301185 140.575382
7855    1 2 0.0 38.138535 3.939837 141.969627
7856    1 2 0.0 33.817063 4.545902 143.026955
7857    1 2 0.0 32.050796 2.780161 143.525698
7858    1 2 0.0 33.200708 6.230295 146.062442
7859    1 2 0.0 34.887310 2.014645 142.964129
7860    1 2 0.0 37.503376 1.383791 141.012417
7861    1 1 0.0 29.911320 9.985019 154.656751
7862    1 1 0.0 31.442329 4.599904 149.492777
7863    1 1 0.0 29.693190 10.324290 151.307309
7864    1 1 0.0 29.104952 7.156845 149.598268
7865    1 2 0.0 31.265796 8.918230 154.094030
7866    1 2 0.0 29.024079 6.561254 147.673962
7867    1 2 0.0 33.806962 7.183710 149.068207
7868    1 2 0.0 29.717672 8.706911 150.125535
7869    1 2 0.0 27.612356 7.363340 150.624278
7870    1 2 0.0 29.478829 10.484558 153.161022
7871    1 2 0.0 30.217221 6.004478 150.062709
7872    1 2 0.0 32.635842 4.824626 148.110997
7873    1 1 0.0 27.075978 14.859981 161.755331
7874    1 1 0.0 27.410386 9.271455 156.591357
7875    1 1 0.0 26.936096 15.238292 158.405889
7876    1 1 0.0 25.679022 12.272065 156.696848
7877    1 2 0.0 28.168704 13.526341 161.192610
7878    1 2 0.0 25.471686 11.707901 154.772542
7879    1 2 0.0 30.276318 11.284903 156.166787
7880    1 2 0.0 26.611419 13.653647 157.224115
7881    1 2 0.0 24.266009 12.795397 157.722858
7882    1 2 0.0 26.761314 15.440993 160.259602
7883    1 2 0.0 26.516789 10.907060 157.161289
7884    1 2 0.0 28.624282 9.233666 155.209577
7885    1 1 0.0 25.357941 20.231459 168.853911
7886    1 1 0.0 24.480030 14.702198 163.689937
7887    1 1 0.0 25.302881 20.631027 165.504469
7888    1 1 0.0 23.436058 18.005440 163.795428
7889    1 2 0.0 26.137556 18.693653 168.291190
7890    1 2 0.0 23.112004 17.499220 161.871122
7891    1 2 0.0 27.712554 16.050651 163.265367
7892    1 2 0.0 24.644306 19.153599 164.322695
7893    1 2 0.0 22.169043 18.821010 164.821438
7894    1 2 0.0 25.175894 20.866633 167.358182
7895    1 2 0.0 23.959945 16.491955 164.259869
7896    1 2 0.0 25.657253 14.403673 162.308157
7897    1 1 0.0 24.837961 25.846977 175.952491
7898    1 1 0.0 22.788996 20.636872 170.788517
7899    1 1 0.0 24.870312 26.249021 172.603049
7900    1 1 0.0 22.481486 24.087484 170.894008
7901    1 2 0.0 25.267820 24.177286 175.389770
7902    1 2 0.0 22.055944 23.663003 168.969702
7903    1 2 0.0 26.236175 21.256949 170.363947
7904    1 2 0.0 23.908793 24.948253 171.421275
7905    1 2 0.0 21.420022 25.156959 171.920018
7906    1 2 0.0 24.797087 26.506460 174.456762
7907    1 2 0.0 22.666869 22.496658 171.358449
7908    1 2 0.0 23.874213 20.091643 169.406737
7909    1 1 0.0 25.540480 31.442590 183.051071
7910    1 1 0.0 22.416766 26.796531 177.887097
7911    1 1 0.0 25.658720 31.828214 179.701629
7912    1 1 0.0 22.860172 30.232325 177.992588
7913    1 2 0.0 25.600378 29.719495 182.488350
7914    1 2 0.0 22.353145 29.909533 176.068282
7915    1 2 0.0 25.916573 26.659086 177.462527
7916    1 2 0.0 24.439452 30.765246 178.519855
7917    1 2 0.0 22.054151 31.505436 179.018598
7918    1 2 0.0 25.642700 32.095384 181.555342
7919    1 2 0.0 22.698337 28.638931 178.457029
7920    1 2 0.0 23.358970 26.030226 176.505317
7921    1 1 0.0 27.432475 36.755290 190.149651
7922    1 1 0.0 23.380837 32.891654 184.985677
7923    1 1 0.0 27.631047 37.106367 186.800209
7924    1 1 0.0 24.554317 36.151137 185.091168
7925    1 2 0.0 27.119598 35.059780 189.586930
7926    1 2 0.0 23.989638 35.945208 183.166862
7927    1 2 0.0 26.768771 32.003148 184.561107
7928    1 2 0.0 26.211339 36.331162 185.618435
7929    1 2 0.0 24.041625 37.568045 186.117178
7930    1 2 0.0 27.672986 37.370711 188.653922
7931    1 2 0.0 24.052872 34.630070 185.555609
7932    1 2 0.0 24.135741 31.940291 183.603897
7933    1 1 0.0 30.425019 41.535363 197.248231
7934    1 1 0.0 25.635895 38.635753 192.084257
7935    1 1 0.0 30.694590 41.835393 193.898789
7936    1 1 0.0 27.484293 41.565720 192.189748
7937    1 2 0.0 29.754072 39.947133 196.685510
7938    1 2 0.0 26.888501 41.486333 190.265442
7939    1 2 0.0 28.752713 37.037947 191.659687
7940    1 2 0.0 29.141172 41.384387 192.717015
7941    1 2 0.0 27.289027 43.059827 193.215758
7942    1 2 0.0 30.792516 42.084485 195.752502
7943    1 2 0.0 26.666806 40.188474 192.654189
7944    1 2 0.0 26.168016 37.544048 190.702477
7945    1 1 0.0 34.377454 45.558134 204.346811
7946    1 1 0.0 29.075946 43.758838 199.182837
7947    1 1 0.0 34.705353 45.793013 200.997369
7948    1 1 0.0 31.512381 46.221574 199.288328
7949    1 2 0.0 33.379974 44.151834 203.784090
7950    1 2 0.0 30.913482 46.272460 197.364022
7951    1 2 0.0 31.775149 41.526835 198.758267
7952    1 2 0.0 33.091240 45.687405 199.815595
7953    1 2 0.0 31.643720 47.722651 200.314338
7954    1 2 0.0 34.854662 46.015146 202.851082
7955    1 2 0.0 30.417277 45.052882 199.752769
7956    1 2 0.0 29.360273 42.578106 197.801057
7957    1 1 0.0 39.104003 48.634521 6.123515
7958    1 1 0.0 33.539297 48.020112 0.959541
7959    1 1 0.0 39.474818 48.793210 2.774073
7960    1 1 0.0 36.449251 49.899860 1.065032
7961    1 2 0.0 37.826874 47.476251 5.560794
7962    1 2 0.0 35.875393 50.078627 204.462602
7963    1 2 0.0 35.694016 45.258822 0.534971
7964    1 2 0.0 37.875878 49.037963 1.592299
7965    1 2 0.0 36.901020 51.337353 2.091042
7966    1 2 0.0 39.668493 48.977943 4.627786
7967    1 2 0.0 35.128002 48.994655 1.529473
7968    1 2 0.0 33.562466 46.805849 204.899637
7969    1 1 0.0 44.382506 50.619924 13.222095
7970    1 1 0.0 38.816159 51.219281 8.058121
7971    1 1 0.0 44.778808 50.694964 9.872653
7972    1 1 0.0 42.062855 52.427688 8.163612
7973    1 2 0.0 42.885757 49.764127 12.659374
7974    1 2 0.0 41.541013 52.725934 6.239306
7975    1 2 0.0 40.325115 48.058492 7.633551
7976    1 2 0.0 43.270195 51.278575 8.690879
7977    1 2 0.0 42.813822 53.734031 9.189622
7978    1 2 0.0 45.007746 50.833614 11.726366
7979    1 2 0.0 40.577564 51.828518 8.628053
7980    1 2 0.0 38.577081 50.028562 6.676341
7981    1 1 0.0 49.964859 51.421025 20.320675
7982    1 1 0.0 44.658504 53.205976 15.156701
7983    1 1 0.0 50.368020 51.408889 16.971233
7984    1 1 0.0 48.089339 53.686244 15.262192
7985    1 2 0.0 48.318841 50.907926 19.757954
7986    1 2 0.0 47.644039 54.089950 13.337886
7987    1 2 0.0 45.450773 49.794254 14.732131
7988    1 2 0.0 49.020643 52.303926 15.789459
7989    1 2 0.0 49.104205 54.800035 16.288202
7990    1 2 0.0 50.621460 51.494939 18.824946
7991    1 2 0.0 46.509819 53.421270 15.726633
7992    1 2 0.0 44.168416 52.094767 13.774921
7993    1 1 0.0 55.588674 51.000169 27.419255
7994    1 1 0.0 50.791726 53.886817 22.255281
7995    1 1 0.0 55.979745 50.901428 24.069813
7996    1 1 0.0 54.245440 53.616372 22.360772
7997    1 2 0.0 53.870755 50.853884 26.856534
7998    1 2 0.0 53.897614 54.106562 20.436466
7999    1 2 0.0 50.830068 50.384522 21.830711
8000    1 2 0.0 54.856936 52.065822 22.888039
8001    1 2 0.0 55.476504 54.485259 23.386782
8002    1 2 0.0 56.245775 50.930833 25.923526
8003    1 2 0.0 52.645934 53.698049 22.825213
8004    1 2 0.0 50.073664 52.907349 20.873501
8005    1 1 0.0 58.670932 44.788935 34.816568
8006    1 1 0.0 55.809257 48.301553 29.235801
8007    1 1 0.0 58.817698 44.629374 31.902921
8008    1 1 0.0 58.585947 47.456441 29.596948
8009    1 2 0.0 57.235521 44.890009 34.165357
8010    1 2 0.0 58.504227 47.984750 27.696504
8011    1 2 0.0 54.595415 44.867766 29.377976
8012    1 2 0.0 58.437358 45.878059 30.445531
8013    1 2 0.0 59.965328 48.092698 30.457191
8014    1 2 0.0 59.127007 44.629753 33.553544
8015    1 2 0.0 57.276883 47.798738 29.915666
8016    1 2 0.0 54.923838 47.467109 28.011959
8017    1 1 0.0 62.660770 42.647577 41.915148
8018    1 1 0.0 60.623401 46.694403 36.334381
8019    1 1 0.0 62.769697 42.460134 39.001501
8020    1 1 0.0 63.152693 45.270710 36.695528
8021    1 2 0.0 61.280877 43.055641 41.263937
8022    1 2 0.0 63.186757 45.804215 34.795084
8023    1 2 0.0 58.698023 43.602926 36.476556
8024    1 2 0.0 62.667417 43.761445 37.544111
8025    1 2 0.0 64.636785 45.594724 37.555771
8026    1 2 0.0 63.071819 42.393841 40.652124
8027    1 2 0.0 61.948167 45.887096 37.014246
8028    1 2 0.0 59.578948 46.070398 35.110539
8029    1 1 0.0 66.095328 39.696639 49.013728
8030    1 1 0.0 64.978026 44.087460 43.432961
8031    1 1 0.0 66.161297 39.490125 46.100081
8032    1 1 0.0 67.141037 42.152103 43.794108
8033    1 2 0.0 64.835811 40.392512 48.362517
8034    1 2 0.0 67.289284 42.665729 41.893664
8035    1 2 0.0 62.431612 41.483602 43.575136
8036    1 2 0.0 66.341883 40.782897 44.642691
8037    1 2 0.0 68.660084 42.148645 44.654351
8038    1 2 0.0 66.442030 39.360275 47.750704
8039    1 2 0.0 66.097665 43.013608 44.112826
8040    1 2 0.0 63.823632 43.703225 42.209119
8041    1 1 0.0 68.813171 36.074823 56.112308
8042    1 1 0.0 68.668454 40.603259 50.531541
8043    1 1 0.0 68.833081 35.858945 53.198661
8044    1 1 0.0 70.363516 38.247206 50.892688
8045    1 2 0.0 67.733232 37.025799 55.461097
8046    1 2 0.0 70.618977 38.716810 48.992244
8047    1 2 0.0 65.620691 38.609409 50.673716
8048    1 2 0.0 69.288047 37.082415 51.741271
8049    1 2 0.0 71.846117 37.916438 51.752931
8050    1 2 0.0 69.079231 35.671642 54.849284
8051    1 2 0.0 69.530339 39.313335 51.211406
8052    1 2 0.0 67.458378 40.476853 49.307699
8053    1 1 0.0 70.686554 31.952366 63.210888
8054    1 1 0.0 71.521224 36.405567 57.630121
8055    1 1 0.0 70.659469 31.737270 60.297241
8056    1 1 0.0 72.668663 33.739558 57.991268
8057    1 2 0.0 69.836953 33.113744 62.559677
8058    1 2 0.0 73.019332 34.143068 56.090824
8059    1 2 0.0 68.115365 35.115440 57.772296
8060    1 2 0.0 71.367429 32.833930 58.839851
8061    1 2 0.0 74.045134 33.097028 58.851511
8062    1 2 0.0 70.859466 31.501318 61.947864
8063    1 2 0.0 72.084843 34.960201 58.309986
8064    1 2 0.0 70.312342 36.542932 56.406279
8065    1 1 0.0 71.627422 27.523033 70.309468
8066    1 1 0.0 73.402247 31.691687 64.728701
8067    1 1 0.0 71.554615 27.318830 67.395821
8068    1 1 0.0 73.948131 28.841032 65.089848
8069    1 2 0.0 71.048093 28.840227 69.658257
8070    1 2 0.0 74.377525 29.159482 63.189404
8071    1 2 0.0 69.798377 31.165923 64.870876
8072    1 2 0.0 72.482294 28.237135 65.938431
8073    1 2 0.0 75.153772 27.916941 65.950091
8074    1 2 0.0 71.699059 27.045319 69.046444
8075    1 2 0.0 73.641110 30.158816 65.408566
8076    1 2 0.0 72.251381 32.086366 63.504859
8077    1 1 0.0 71.591552 22.995016 77.408048
8078    1 1 0.0 74.223110 26.683184 71.827281
8079    1 1 0.0 71.476446 22.811304 74.494401
8080    1 1 0.0 74.141782 23.781873 72.188428
8081    1 2 0.0 71.309724 24.406114 76.756837
8082    1 2 0.0 74.629717 24.000294 70.287984
8083    1 2 0.0 70.590622 26.946496 71.969456
8084    1 2 0.0 72.580239 23.508091 73.037011
8085    1 2 0.0 75.119925 22.619654 73.048671
8086    1 2 0.0 71.558547 22.513089 76.145024
8087    1 2 0.0 74.125989 25.134857 72.507146
8088    1 2 0.0 73.184354 27.316627 70.603439
8089    1 1 0.0 70.580630 18.581146 84.506628
8090    1 1 0.0 73.945230 21.615473 78.925861
8091    1 1 0.0 70.428634 18.426558 81.592981
8092    1 1 0.0 73.240512 18.799875 79.287008
8093    1 2 0.0 70.609551 20.019821 83.855417
8094    1 2 0.0 73.764055 18.908001 77.386564
8095    1 2 0.0 70.454861 22.655484 79.068036
8096    1 2 0.0 71.656661 18.869076 80.135591
8097    1 2 0.0 73.945182 17.454157 80.147251
8098    1 2 0.0 70.444534 18.117658 83.243604
8099    1 2 0.0 73.516691 20.124466 79.605726
8100    1 2 0.0 73.067408 22.457905 77.702019
8101    1 1 0.0 68.642172 14.488884 91.605208
8102    1 1 0.0 72.581669 16.726750 86.024441
8103    1 1 0.0 68.460431 14.370689 88.691561
8104    1 1 0.0 71.286684 14.129205 86.385588
8105    1 2 0.0 68.980481 15.887516 90.953997
8106    1 2 0.0 71.821227 14.121955 84.485144
8107    1 2 0.0 69.397475 18.494577 86.166616
8108    1 2 0.0 69.754971 14.538138 87.234171
8109    1 2 0.0 71.684759 12.663241 87.245831
8110    1 2 0.0 68.409382 14.065621 90.342184
8111    1 2 0.0 71.841853 15.363144 86.704306
8112    1 2 0.0 71.906041 17.738575 84.800599
8113    1 1 0.0 65.867291 10.910581 98.703788
8114    1 1 0.0 70.196517 12.246798 93.123021
8115    1 1 0.0 65.664348 10.834333 95.790141
8116    1 1 0.0 68.372134 9.989400 93.484168
8117    1 2 0.0 66.499088 12.203429 98.052577
8118    1 2 0.0 68.892552 9.867113 91.583724
8119    1 2 0.0 67.468165 14.659348 93.265196
8120    1 2 0.0 66.964553 10.718843 94.332751
8121    1 2 0.0 68.444903 8.472093 94.344411
8122    1 2 0.0 65.548748 10.547437 97.440764
8123    1 2 0.0 69.180199 11.074686 93.802886
8124    1 2 0.0 69.754840 13.380458 91.899179
8125    1 1 0.0 62.386414 8.014425 105.802368
8126    1 1 0.0 66.901884 8.386189 100.221601
8127    1 1 0.0 62.171807 7.983708 102.888721
8128    1 1 0.0 64.633853 6.575040 100.582748
8129    1 2 0.0 63.282002 9.140722 105.151157
8130    1 2 0.0 65.115685 6.343465 98.682304
8131    1 2 0.0 64.757614 11.330065 100.363776
8132    1 2 0.0 63.416565 7.590707 101.431331
8133    1 2 0.0 64.377897 5.077709 101.442991
8134    1 2 0.0 61.997092 7.728469 104.539344
8135    1 2 0.0 65.656833 7.460664 100.901466
8136    1 2 0.0 66.714918 9.588398 98.997759
8137    1 1 0.0 58.363153 5.936545 112.900948
8138    1 1 0.0 62.852626 5.326380 107.320181
8139    1 1 0.0 58.146968 5.952803 109.987301
8140    1 1 0.0 60.247552 4.046611 107.681328
8141    1 2 0.0 59.480437 6.843352 112.249737
8142    1 2 0.0 60.668150 3.716632 105.780884
8143    1 2 0.0 61.393225 8.663213 107.462356
8144    1 2 0.0 59.277772 5.300763 108.529911
8145    1 2 0.0 59.674900 2.639634 108.541571
8146    1 2 0.0 57.921349 5.741218 111.637924
8147    1 2 0.0 61.437363 4.690945 108.000046
8148    1 2 0.0 62.929159 6.540632 106.096339
8149    1 1 0.0 53.986611 4.774607 119.999528
8150    1 1 0.0 58.239070 3.211193 114.418761
8151    1 1 0.0 53.779011 4.837075 117.085881
8152    1 1 0.0 55.419398 2.522956 114.779908
8153    1 2 0.0 55.273075 5.419301 119.348317
8154    1 2 0.0 55.758993 2.110083 112.879464
8155    1 2 0.0 57.533134 6.784141 114.560936
8156    1 2 0.0 54.742709 3.956644 115.628491
8157    1 2 0.0 54.556968 1.272464 115.640151
8158    1 2 0.0 53.513093 4.679089 118.736504
8159    1 2 0.0 56.720116 2.895714 115.098626
8160    1 2 0.0 58.575504 4.380414 113.194919
8161    1 1 0.0 49.462498 4.583224 127.098108
8162    1 1 0.0 53.278067 2.140047 121.517341
8163    1 1 0.0 49.273241 4.688967 124.184461
8164    1 1 0.0 50.376329 2.075690 121.878488
8165    1 2 0.0 50.857676 4.935503 126.446897
8166    1 2 0.0 50.618959 1.599330 119.978044
8167    1 2 0.0 53.358775 5.781172 121.659516
8168    1 2 0.0 50.024537 3.621528 122.727071
8169    1 2 0.0 49.264656 1.040461 122.738731
8170    1 2 0.0 48.979522 4.592006 125.835084
8171    1 2 0.0 51.726817 2.159353 122.197206
8172    1 2 0.0 53.858588 3.209279 120.293499
8173    1 1 0.0 45.003461 5.371393 134.196688
8174    1 1 0.0 48.202796 2.163288 128.615921
8175    1 1 0.0 44.841442 5.515440 131.283041
8176    1 1 0.0 45.355383 2.725837 128.977068
8177    1 2 0.0 46.441775 5.414699 133.545477
8178    1 2 0.0 45.489643 2.208380 127.076624
8179    1 2 0.0 49.066357 5.701447 128.758096
8180    1 2 0.0 45.345023 4.311165 129.825651
8181    1 2 0.0 44.046719 1.954530 129.837311
8182    1 2 0.0 44.533728 5.484061 132.933664
8183    1 2 0.0 46.692163 2.516472 129.295786
8184    1 2 0.0 49.000119 3.082276 127.392079
8185    1 1 0.0 40.819087 7.102067 141.295268
8186    1 1 0.0 43.251810 3.279825 135.714501
8187    1 1 0.0 40.691921 7.277648 138.381621
8188    1 1 0.0 40.592558 4.442839 136.075648
8189    1 2 0.0 42.232932 6.834365 140.644057
8190    1 2 0.0 40.612139 3.908605 134.175204
8191    1 2 0.0 44.857633 6.548714 135.856676
8192    1 2 0.0 40.924117 5.993142 136.924231
8193    1 2 0.0 39.148415 3.971706 136.935891
8194    1 2 0.0 40.384676 7.313326 140.032244
8195    1 2 0.0 41.852799 3.950285 136.394366
8196    1 2 0.0 44.228459 4.005373 134.490659
8197    1 1 0.0 37.106053 9.693900 148.393848
8198    1 1 0.0 38.657819 5.437176 142.813081
8199    1 1 0.0 37.019718 9.892762 145.480201
8200    1 1 0.0 36.311720 7.145990 143.174228
8201    1 2 0.0 38.428974 9.127772 147.742637
8202    1 2 0.0 36.215701 6.620091 141.273784
8203    1 2 0.0 40.930427 8.283149 142.955256
8204    1 2 0.0 36.969615 8.588399 144.022811
8205    1 2 0.0 34.799976 6.997176 144.034471
8206    1 2 0.0 36.727383 9.993820 147.130824
8207    1 2 0.0 37.436187 6.393400 143.492946
8208    1 2 0.0 39.767889 5.935182 141.589239
8209    1 1 0.0 34.038882 13.025068 155.492428
8210    1 1 0.0 34.636755 8.533941 149.911661
8211    1 1 0.0 33.997435 13.237864 152.578781
8212    1 1 0.0 32.714082 10.708235 150.272808
8213    1 2 0.0 35.208699 12.187124 154.841217
8214    1 2 0.0 32.506976 10.215391 148.372364
8215    1 2 0.0 37.469327 10.823228 150.053836
8216    1 2 0.0 33.667389 11.974954 151.121391
8217    1 2 0.0 31.205793 10.888736 151.133051
8218    1 2 0.0 33.733751 13.399552 154.229404
8219    1 2 0.0 33.649921 9.730983 150.591526
8220    1 2 0.0 35.828068 8.780997 148.687819
8221    1 1 0.0 31.761740 16.938998 162.591008
8222    1 1 0.0 31.377617 12.424563 157.010241
8223    1 1 0.0 31.767129 17.155725 159.677361
8224    1 1 0.0 29.968742 14.962139 157.371388
8225    1 2 0.0 32.723467 15.868623 161.939797
8226    1 2 0.0 29.660283 14.525513 155.470944
8227    1 2 0.0 34.637016 14.049562 157.152416
8228    1 2 0.0 31.172652 15.993628 158.219971
8229    1 2 0.0 28.534802 15.463470 158.231631
8230    1 2 0.0 31.544490 17.370444 161.327984
8231    1 2 0.0 30.671967 13.806158 157.690106
8232    1 2 0.0 32.594179 12.409056 155.786399
8233    1 1 0.0 30.381658 21.251723 169.689588
8234    1 1 0.0 29.033595 16.926171 164.108821
8235    1 1 0.0 30.433631 21.462195 166.775941
8236    1 1 0.0 28.204738 19.707756 164.469968
8237    1 2 0.0 31.090093 19.999228 169.038377
8238    1 2 0.0 27.809426 19.347872 162.569524
8239    1 2 0.0 32.566619 17.810502 164.250996
8240    1 2 0.0 29.602666 20.455533 165.318551
8241    1 2 0.0 26.912547 20.506353 165.330211
8242    1 2 0.0 30.262501 21.719851 168.426564
8243    1 2 0.0 28.642295 18.427381 164.788686
8244    1 2 0.0 30.218224 16.648830 162.884979
8245    1 1 0.0 29.963505 25.760533 176.788168
8246    1 1 0.0 27.714864 21.827177 171.207401
8247    1 1 0.0 30.059619 25.954858 173.874521
8248    1 1 0.0 27.504984 24.722030 171.568548
8249    1 2 0.0 30.385348 24.384789 176.136957
8250    1 2 0.0 27.041399 24.455803 169.668104
8251    1 2 0.0 31.355452 21.929275 171.349576
8252    1 2 0.0 29.031222 25.150946 172.417131
8253    1 2 0.0 26.415278 25.780357 172.428791
8254    1 2 0.0 29.948041 26.243341 175.525144
8255    1 2 0.0 27.656307 23.377442 171.887266
8256    1 2 0.0 28.811879 21.301039 169.983559
8257    1 1 0.0 30.526935 30.253501 183.886748
8258    1 1 0.0 27.483408 26.897221 178.305981
8259    1 1 0.0 30.662671 30.422545 180.973101
8260    1 1 0.0 27.902371 29.769274 178.667128
8261    1 2 0.0 30.642359 28.819172 183.235537
8262    1 2 0.0 27.392302 29.609218 176.766684
8263    1 2 0.0 31.060442 26.212286 178.448156
8264    1 2 0.0 29.485182 29.859170 179.515711
8265    1 2 0.0 27.066369 31.037587 179.527371
8266    1 2 0.0 30.615891 30.728296 182.623724
8267    1 2 0.0 27.760346 28.423672 178.985846
8268    1 2 0.0 28.441247 26.147015 177.082139
8269    1 1 0.0 32.045465 34.519446 190.985328
8270    1 1 0.0 28.350107 31.897995 185.404561
8271    1 1 0.0 32.214444 34.655263 188.071681
8272    1 1 0.0 29.378220 34.612255 185.765708
8273    1 2 0.0 31.849044 33.093950 190.334117
8274    1 2 0.0 28.845642 34.565893 183.865264
8275    1 2 0.0 31.695456 30.458222 185.546736
8276    1 2 0.0 30.943207 34.358905 186.614291
8277    1 2 0.0 28.835216 36.030939 186.625951
8278    1 2 0.0 32.234660 34.963911 189.722304
8279    1 2 0.0 28.949523 33.328886 186.084426
8280    1 2 0.0 29.123748 30.958983 184.180719
8281    1 1 0.0 34.447720 38.357857 198.083908
8282    1 1 0.0 30.274223 36.594451 192.503141
8283    1 1 0.0 34.641999 38.454062 195.170261
8284    1 1 0.0 31.863161 39.023339 192.864288
8285    1 2 0.0 33.948687 37.008194 197.432697
8286    1 2 0.0 31.333107 39.092849 190.963844
8287    1 2 0.0 33.230646 34.467511 192.645316
8288    1 2 0.0 33.336766 38.438651 193.712871
8289    1 2 0.0 31.638679 40.525712 193.724531
8290    1 2 0.0 34.728261 38.751099 196.820884
8291    1 2 0.0 31.167943 37.862525 193.183006
8292    1 2 0.0 30.827303 35.510769 191.279299
8293    1 1 0.0 37.620787 41.588316 205.182488
8294    1 1 0.0 33.165318 40.765840 199.601721
8295    1 1 0.0 37.831235 41.640388 202.268841
8296    1 1 0.0 35.240396 42.795192 199.962868
8297    1 2 0.0 36.842598 40.377926 204.531277
8298    1 2 0.0 34.737780 42.977308 198.062424
8299    1 2 0.0 35.593854 38.051707 199.743896
8300    1 2 0.0 36.553355 41.906648 200.811451
8301    1 2 0.0 35.344986 44.310638 200.823111
8302    1 2 0.0 37.979488 41.911853 203.919464
8303    1 2 0.0 34.311334 41.811495 200.281586
8304    1 2 0.0 33.471840 39.588424 198.377879
8305    1 1 0.0 41.415523 44.058983 6.959192
8306    1 1 0.0 36.887501 44.216096 1.378425
8307    1 1 0.0 41.632248 44.064475 4.045545
8308    1 1 0.0 39.351186 45.750527 1.739572
8309    1 2 0.0 40.394755 43.044757 6.307981
8310    1 2 0.0 38.899632 46.036688 205.161004
8311    1 2 0.0 38.674003 41.042342 1.520600
8312    1 2 0.0 40.441786 44.599891 2.588155
8313    1 2 0.0 39.779932 47.207816 2.599815
8314    1 2 0.0 41.835524 44.297609 5.696168
8315    1 2 0.0 38.231948 44.990183 2.058290
8316    1 2 0.0 36.933058 43.000289 0.154583
8317    1 1 0.0 45.653566 45.653730 14.057772
8318    1 1 0.0 41.265819 46.783048 8.477005
8319    1 1 0.0 45.866381 45.612384 11.144125
8320    1 1 0.0 44.002310 47.750435 8.838152
8321    1 2 0.0 44.438197 44.883340 13.406561
8322    1 2 0.0 43.623044 48.127191 6.937708
8323    1 2 0.0 42.326317 43.298848 8.619180
8324    1 2 0.0 44.819291 46.391790 9.686735
8325    1 2 0.0 44.735062 49.081070 9.698395
8326    1 2 0.0 46.115125 45.796228 12.794748
8327    1 2 0.0 42.745504 47.249182 9.156870
8328    1 2 0.0 41.048271 45.585995 7.253163
8329    1 1 0.0 50.135714 46.297600 21.156352
8330    1 1 0.0 46.094480 48.346040 15.575585
8331    1 1 0.0 50.334617 46.211359 18.242705
8332    1 1 0.0 48.975155 48.700914 15.936732
8333    1 2 0.0 48.782870 45.807256 20.505141
8334    1 2 0.0 48.686002 49.150557 14.036288
8335    1 2 0.0 46.379127 44.715162 15.717760
8336    1 2 0.0 49.480115 47.198121 16.785315
8337    1 2 0.0 49.977469 49.842352 16.796975
8338    1 2 0.0 50.617138 46.337272 19.893328
8339    1 2 0.0 47.639854 48.482313 16.255450
8340    1 2 0.0 45.624051 47.224007 14.351743
8341    1 1 0.0 54.651294 45.960329 28.254932
8342    1 1 0.0 51.146523 48.831610 22.674165
8343    1 1 0.0 54.826936 45.833246 25.341285
8344    1 1 0.0 54.035982 48.557289 23.035312
8345    1 2 0.0 53.224564 45.773079 27.603721
8346    1 2 0.0 53.850533 49.058684 21.134868
8347    1 2 0.0 50.641940 45.224714 22.816340
8348    1 2 0.0 54.205187 46.980983 23.883895
8349    1 2 0.0 55.260747 49.455880 23.895555
8350    1 2 0.0 55.129954 45.895309 26.991908
8351    1 2 0.0 52.684948 48.631615 23.354030
8352    1 2 0.0 50.445325 47.837334 21.450323
8353    1 1 0.0 58.930202 60.221901 37.334215
8354    1 1 0.0 52.877282 63.628769 32.365210
8355    1 1 0.0 58.659131 59.894465 34.029209
8356    1 1 0.0 56.389682 62.854288 32.810234
8357    1 2 0.0 56.908666 60.345194 36.687756
8358    1 2 0.0 55.513051 63.263858 31.098588
8359    1 2 0.0 52.426766 60.091617 31.601912
8360    1 2 0.0 57.163108 61.210197 33.056525
8361    1 2 0.0 57.898010 63.625820 34.080599
8362    1 2 0.0 59.319015 59.978192 35.893708
8363    1 2 0.0 54.893763 63.203043 33.073429
8364    1 2 0.0 51.639594 62.658714 30.939872
8365    1 1 0.0 66.240117 57.661968 44.432795
8366    1 1 0.0 61.063711 62.293318 39.463790
8367    1 1 0.0 65.904847 57.400649 41.127789
8368    1 1 0.0 64.326645 60.780032 39.908814
8369    1 2 0.0 64.292663 58.218053 43.786336
8370    1 2 0.0 63.558889 61.368911 38.197168
8371    1 2 0.0 59.861442 58.936390 38.700492
8372    1 2 0.0 64.727554 59.007888 40.155105
8373    1 2 0.0 65.965809 61.208352 41.179179
8374    1 2 0.0 66.567268 57.340188 42.992288
8375    1 2 0.0 62.941047 61.442997 40.172009
8376    1 2 0.0 59.646040 61.612812 38.038452
8377    1 1 0.0 72.826513 53.586736 51.531375
8378    1 1 0.0 68.769925 59.224882 46.562370
8379    1 1 0.0 72.442801 53.403818 48.226369
8380    1 1 0.0 71.630027 57.043921 47.007394
8381    1 2 0.0 71.044676 54.549475 50.884916
8382    1 2 0.0 71.007231 57.784430 45.295748
8383    1 2 0.0 66.872414 56.205964 45.799072
8384    1 2 0.0 71.639575 55.227019 47.253685
8385    1 2 0.0 73.322982 57.108895 48.277759
8386    1 2 0.0 73.076624 53.202010 50.090868
8387    1 2 0.0 70.419878 57.989934 47.270589
8388    1 2 0.0 67.238907 58.865910 45.137032
8389    1 1 0.0 78.379810 48.187753 58.629955
8390    1 1 0.0 75.633712 54.567686 53.660950
8391    1 1 0.0 77.965693 48.091833 55.324949
8392    1 1 0.0 77.956549 51.821560 54.105974
8393    1 2 0.0 76.847342 49.511895 57.983496
8394    1 2 0.0 77.507987 52.678894 52.394328
8395    1 2 0.0 73.130146 52.028676 52.897652
8396    1 2 0.0 77.574287 50.045301 54.352265
8397    1 2 0.0 79.623720 51.520136 55.376339
8398    1 2 0.0 78.541125 47.758164 57.189448
8399    1 2 0.0 76.978728 53.006157 54.369169
8400    1 2 0.0 74.061308 54.547121 52.235612
8401    1 1 0.0 82.638988 41.718787 65.728535
8402    1 1 0.0 81.332454 48.540631 60.759530
8403    1 1 0.0 82.213930 41.714373 62.423529
8404    1 1 0.0 83.008845 45.358417 61.204554
8405    1 2 0.0 81.427919 43.342092 65.082076
8406    1 2 0.0 82.755601 46.292278 59.492908
8407    1 2 0.0 78.340508 46.600870 59.996232
8408    1 2 0.0 82.252741 43.706289 61.450845
8409    1 2 0.0 84.571872 44.704762 62.474919
8410    1 2 0.0 82.703925 41.264526 64.288028
8411    1 2 0.0 82.309313 46.725918 61.467749
8412    1 2 0.0 79.792571 48.859440 59.334192
8413    1 1 0.0 85.403853 34.483896 72.827115
8414    1 1 0.0 85.598294 41.427007 67.858110
8415    1 1 0.0 84.987833 34.571196 69.522109
8416    1 1 0.0 86.549445 37.958277 68.303134
8417    1 2 0.0 84.571106 36.330066 72.180656
8418    1 2 0.0 86.503422 38.924771 66.591488
8419    1 2 0.0 82.258598 40.177668 67.094812
8420    1 2 0.0 85.455037 36.507934 68.549425
8421    1 2 0.0 87.934860 36.983114 69.573499
8422    1 2 0.0 85.369360 34.026316 71.386608
8423    1 2 0.0 86.161082 39.444405 68.566329
8424    1 2 0.0 84.163311 42.070205 66.432772
8425    1 1 0.0 86.544449 26.823142 79.925695
8426    1 1 0.0 88.230725 33.561173 74.956690
8427    1 1 0.0 86.157021 26.998052 76.620689
8428    1 1 0.0 88.411930 29.968967 75.401714
8429    1 2 0.0 86.129167 28.805400 79.279236
8430    1 2 0.0 88.575290 30.922666 73.690068
8431    1 2 0.0 84.700255 33.060978 74.193392
8432    1 2 0.0 87.030659 28.788580 75.648005
8433    1 2 0.0 89.554614 28.718133 76.672079
8434    1 2 0.0 86.412147 26.383749 78.485188
8435    1 2 0.0 88.352989 31.503871 75.664909
8436    1 2 0.0 86.968092 34.498527 73.531352
8437    1 1 0.0 86.007165 19.096600 87.024275
8438    1 1 0.0 89.106017 25.312845 82.055270
8439    1 1 0.0 85.666539 19.350899 83.719269
8440    1 1 0.0 88.508757 21.766008 82.500294
8441    1 2 0.0 86.028866 21.121776 86.377816
8442    1 2 0.0 88.873823 22.662085 80.788648
8443    1 2 0.0 85.550714 25.585306 81.291972
8444    1 2 0.0 86.905547 20.911058 82.746585
8445    1 2 0.0 89.355003 20.298294 83.770659
8446    1 2 0.0 85.783273 18.696048 85.583768
8447    1 2 0.0 88.782010 23.277542 82.763489
8448    1 2 0.0 88.075079 26.500298 80.629932
8449    1 1 0.0 83.817254 11.667440 94.122855
8450    1 1 0.0 88.183028 17.069719 89.153850
8451    1 1 0.0 83.539442 11.989176 90.817849
8452    1 1 0.0 86.835376 13.734961 89.598874
8453    1 2 0.0 84.274919 13.640345 93.476396
8454    1 2 0.0 87.384989 14.531299 87.887228
8455    1 2 0.0 84.770001 18.102029 88.390552
8456    1 2 0.0 85.085582 13.245634 89.845165
8457    1 2 0.0 87.345407 12.119354 90.869239
8458    1 2 0.0 83.512295 11.324556 92.682348
8459    1 2 0.0 87.427979 15.152079 89.862069
8460    1 2 0.0 87.432243 18.451456 87.728512
8461    1 1 0.0 80.077649 4.884854 101.221435
8462    1 1 0.0 85.505140 9.219243 96.252430
8463    1 1 0.0 79.875707 5.258904 97.916429
8464    1 1 0.0 83.470441 6.253308 96.697454
8465    1 2 0.0 80.949766 6.712755 100.574976
8466    1 2 0.0 84.178767 6.912476 94.985808
8467    1 2 0.0 82.394812 10.962881 95.489132
8468    1 2 0.0 81.656307 6.152603 96.943745
8469    1 2 0.0 83.620283 4.565746 97.967819
8470    1 2 0.0 79.705957 4.615753 99.780928
8471    1 2 0.0 84.354540 7.509402 96.960649
8472    1 2 0.0 85.069797 10.730320 94.827092
8473    1 1 0.0 74.964121 -0.932358 108.320015
8474    1 1 0.0 81.198223 2.130414 103.351010
8475    1 1 0.0 74.847542 -0.523576 105.015009
8476    1 1 0.0 78.572112 -0.327292 103.796034
8477    1 2 0.0 76.209698 0.664622 107.673556
8478    1 2 0.0 79.405858 0.163724 102.084388
8479    1 2 0.0 78.536787 4.503423 102.587712
8480    1 2 0.0 76.778909 -0.034641 104.042325
8481    1 2 0.0 78.354724 -2.007488 105.066399
8482    1 2 0.0 74.543168 -1.115026 106.879508
8483    1 2 0.0 79.706152 0.708738 104.059229
8484    1 2 0.0 81.098784 3.699805 101.925672
8485    1 1 0.0 68.717022 -5.510771 115.418595
8486    1 1 0.0 75.464713 -3.863576 110.449590
8487    1 1 0.0 68.691284 -5.086470 112.113589
8488    1 1 0.0 72.370626 -5.697533 110.894614
8489    1 2 0.0 70.277513 -4.219773 114.772136
8490    1 2 0.0 73.290603 -5.397748 109.182968
8491    1 2 0.0 73.377265 -0.972733 109.686292
8492    1 2 0.0 70.682639 -5.025282 111.140905
8493    1 2 0.0 71.796224 -7.291389 112.164979
8494    1 2 0.0 68.266591 -5.598421 113.978088
8495    1 2 0.0 73.701302 -4.930263 111.157809
8496    1 2 0.0 75.705852 -2.309636 109.024252
8497    1 1 0.0 61.629981 -8.635186 122.517175
8498    1 1 0.0 68.574101 -8.480990 117.548170
8499    1 1 0.0 61.696295 -8.215310 119.212169
8500    1 1 0.0 65.157468 -9.604998 117.993194
8501    1 2 0.0 63.432039 -7.710852 121.870716
8502    1 2 0.0 66.120435 -9.510535 116.281548
8503    1 2 0.0 67.158756 -5.208191 116.784872
8504    1 2 0.0 63.654037 -8.584744 118.239485
8505    1 2 0.0 64.253052 -11.037599 119.263559
8506    1 2 0.0 61.171246 -8.623698 121.076668
8507    1 2 0.0 66.622237 -9.142552 118.256389
8508    1 2 0.0 69.144484 -7.015541 116.122832
8509    1 1 0.0 54.036109 -10.158748 129.615755
8510    1 1 0.0 60.850266 -11.504798 124.646750
8511    1 1 0.0 54.191359 -9.763032 126.310749
8512    1 1 0.0 57.271679 -11.866024 125.091774
8513    1 2 0.0 55.995033 -9.644523 128.969296
8514    1 2 0.0 58.232373 -11.981324 123.380128
8515    1 2 0.0 60.173550 -8.003875 123.883452
8516    1 2 0.0 56.023469 -10.545723 125.338065
8517    1 2 0.0 56.079757 -13.070034 126.362139
8518    1 2 0.0 53.590631 -10.048661 128.175248
8519    1 2 0.0 58.801691 -11.730140 125.354969
8520    1 2 0.0 61.723084 -10.196721 123.221412
8521    1 1 0.0 46.292341 -10.009844 136.714335
8522    1 1 0.0 52.656250 -12.792873 131.745330
8523    1 1 0.0 46.529228 -9.656887 133.409329
8524    1 1 0.0 49.083911 -12.374339 132.190354
8525    1 2 0.0 48.316055 -9.929898 136.067876
8526    1 2 0.0 49.997178 -12.693982 130.478708
8527    1 2 0.0 52.749969 -9.228377 130.982032
8528    1 2 0.0 48.149593 -10.816048 132.436645
8529    1 2 0.0 47.660509 -13.293166 133.460719
8530    1 2 0.0 45.881059 -9.806333 135.273828
8531    1 2 0.0 50.607253 -12.571402 132.453549
8532    1 2 0.0 53.790477 -11.703650 130.319992
8533    1 1 0.0 38.762654 -8.195473 143.812915
8534    1 1 0.0 44.377194 -12.284671 138.843910
8535    1 1 0.0 39.070045 -7.901866 140.507909
8536    1 1 0.0 40.979014 -11.106049 139.288934
8537    1 2 0.0 40.756038 -8.553565 143.166456
8538    1 2 0.0 41.801927 -11.615011 137.577288
8539    1 2 0.0 45.236944 -8.824145 138.080612
8540    1 2 0.0 40.402502 -9.383012 139.535225
8541    1 2 0.0 39.391035 -11.696505 140.559299
8542    1 2 0.0 38.404899 -7.908104 142.372408
8543    1 2 0.0 42.424083 -11.626797 139.552129
8544    1 2 0.0 45.719518 -11.465499 137.418572
8545    1 1 0.0 31.800966 -4.800916 150.911495
8546    1 1 0.0 36.402236 -10.004079 145.942490
8547    1 1 0.0 32.164411 -4.580460 147.606489
8548    1 1 0.0 33.337940 -8.120768 146.387514
8549    1 2 0.0 33.670325 -5.580214 150.265036
8550    1 2 0.0 34.031820 -8.795126 144.675868
8551    1 2 0.0 37.987607 -6.810176 145.179192
8552    1 2 0.0 33.146332 -6.313973 146.633805
8553    1 2 0.0 31.660023 -8.355100 147.657879
8554    1 2 0.0 31.513553 -4.443196 149.470988
8555    1 2 0.0 34.636814 -8.940724 146.650709
8556    1 2 0.0 37.889565 -9.493461 144.517152
8557    1 1 0.0 25.734494 0.014273 158.010075
8558    1 1 0.0 29.106224 -6.058291 153.041070
8559    1 1 0.0 26.136912 0.151217 154.705069
8560    1 1 0.0 26.519840 -3.558812 153.486094
8561    1 2 0.0 27.391964 -1.149602 157.363616
8562    1 2 0.0 27.052074 -4.366869 151.774448
8563    1 2 0.0 31.342698 -3.281135 152.277772
8564    1 2 0.0 26.722143 -1.753183 153.732385
8565    1 2 0.0 24.830853 -3.426006 154.756459
8566    1 2 0.0 25.530934 0.425530 156.569568
8567    1 2 0.0 27.611469 -4.639437 153.749289
8568    1 2 0.0 30.668648 -5.880228 151.615732
8569    1 1 0.0 20.848381 6.023767 165.108655
8570    1 1 0.0 22.832088 -0.632771 160.139650
8571    1 1 0.0 21.270856 6.070762 161.803649
8572    1 1 0.0 20.845186 2.365394 160.584674
8573    1 2 0.0 22.216055 4.530021 164.462196
8574    1 2 0.0 21.190755 1.461618 158.873028
8575    1 2 0.0 25.614545 1.597105 159.376352
8576    1 2 0.0 21.431890 4.084987 160.830965
8577    1 2 0.0 19.224515 2.859096 161.855039
8578    1 2 0.0 20.738241 6.469232 163.668148
8579    1 2 0.0 21.678260 1.074894 160.847869
8580    1 2 0.0 24.396171 -0.795633 158.714312
8581    1 1 0.0 17.372287 12.945103 172.207235
8582    1 1 0.0 17.874732 6.017467 167.238230
8583    1 1 0.0 17.794962 12.899941 168.902229
8584    1 1 0.0 16.580701 9.373396 167.683254
8585    1 2 0.0 18.385882 11.191696 171.560776
8586    1 2 0.0 16.723364 8.416382 165.971608
8587    1 2 0.0 21.072389 7.595252 166.474932
8588    1 2 0.0 17.524230 10.926127 167.929545
8589    1 2 0.0 15.104522 10.204788 168.953619
8590    1 2 0.0 17.360743 13.403837 170.766728
8591    1 2 0.0 17.116063 7.933677 167.946449
8592    1 2 0.0 19.366956 5.521336 165.812892
8593    1 1 0.0 15.469599 20.452959 179.305815
8594    1 1 0.0 14.467166 13.579843 174.336810
8595    1 1 0.0 15.872607 20.317761 176.000809
8596    1 1 0.0 13.926828 17.135797 174.781834
8597    1 2 0.0 16.081472 18.522306 178.659356
8598    1 2 0.0 13.859879 16.170527 173.070188
8599    1 2 0.0 17.929723 14.431377 173.573512
8600    1 2 0.0 15.182833 18.448685 175.028125
8601    1 2 0.0 12.664526 18.265802 176.052199
8602    1 2 0.0 15.557194 20.903400 177.865308
8603    1 2 0.0 14.139315 15.614531 175.045029
8604    1 2 0.0 15.817392 12.773762 172.911472
8605    1 1 0.0 15.229748 28.194444 186.404395
8606    1 1 0.0 12.769553 21.698904 181.435390
8607    1 1 0.0 15.594146 27.975566 183.099389
8608    1 1 0.0 13.008307 25.287744 181.880414
8609    1 2 0.0 15.411139 26.177291 185.757936
8610    1 2 0.0 12.734893 24.359589 180.168768
8611    1 2 0.0 16.334262 21.784163 180.672092
8612    1 2 0.0 14.517753 26.299078 182.126705
8613    1 2 0.0 12.019214 26.663248 183.150779
8614    1 2 0.0 15.412365 28.615420 184.963888
8615    1 2 0.0 12.887931 23.756434 182.143609
8616    1 2 0.0 13.914318 20.620762 180.010052
8617    1 1 0.0 16.664007 35.805687 193.502975
8618    1 1 0.0 12.861688 29.993032 188.533970
8619    1 1 0.0 16.972668 35.513416 190.197969
8620    1 1 0.0 13.868311 33.446072 188.978994
8621    1 2 0.0 16.406391 33.796846 192.856516
8622    1 2 0.0 13.401282 32.598657 187.267348
8623    1 2 0.0 16.360996 29.308008 187.770672
8624    1 2 0.0 15.560249 34.108317 189.225285
8625    1 2 0.0 13.198917 35.002423 190.249359
8626    1 2 0.0 16.933063 36.177411 192.062468
8627    1 2 0.0 13.420729 31.976693 189.242189
8628    1 2 0.0 13.747184 28.693503 187.108632
8629    1 1 0.0 19.704964 42.928938 200.601555
8630    1 1 0.0 14.739239 38.072379 195.632550
8631    1 1 0.0 19.943379 42.577013 197.296549
8632    1 1 0.0 16.466417 41.227317 196.077574
8633    1 2 0.0 19.020449 41.022830 199.955096
8634    1 2 0.0 15.827726 40.500472 194.365928
8635    1 2 0.0 18.008669 36.649270 194.869252
8636    1 2 0.0 18.261321 41.509345 196.323865
8637    1 2 0.0 16.148185 42.891361 197.347939
8638    1 2 0.0 20.047812 43.233938 199.161048
8639    1 2 0.0 15.712668 39.888935 196.340769
8640    1 2 0.0 15.323845 36.612546 194.207212
8641    1 1 0.0 24.209683 49.229385 2.378259
8642    1 1 0.0 18.313956 45.557193 202.731130
8643    1 1 0.0 24.366647 48.834346 204.395129
8644    1 1 0.0 20.680506 48.265738 203.176154
8645    1 2 0.0 23.130443 47.515602 1.731800
8646    1 2 0.0 19.900174 47.693628 201.464508
8647    1 2 0.0 21.199835 43.462889 201.967832
8648    1 2 0.0 22.494012 48.154293 203.422445
8649    1 2 0.0 20.728395 49.959261 204.446519
8650    1 2 0.0 24.610208 49.453325 0.937752
8651    1 2 0.0 19.656019 47.121260 203.439349
8652    1 2 0.0 18.570194 44.005672 201.305792
8653    1 1 0.0 29.966431 54.410888 9.476839
8654    1 1 0.0 23.417817 52.095667 4.507834
8655    1 1 0.0 30.034566 53.991303 6.171833
8656    1 1 0.0 26.312506 54.230509 4.952858
8657    1 2 0.0 28.543194 52.969983 8.830380
8658    1 2 0.0 25.427209 53.840025 3.241212
8659    1 2 0.0 25.784502 49.428606 3.744536
8660    1 2 0.0 28.059373 53.730830 5.199149
8661    1 2 0.0 26.724264 55.873912 6.223223
8662    1 2 0.0 30.405808 54.543242 8.036332
8663    1 2 0.0 25.065433 53.333730 5.216053
8664    1 2 0.0 23.333643 50.525383 3.082496
8665    1 1 0.0 36.704624 58.229902 16.575419
8666    1 1 0.0 29.810927 57.380475 11.606414
8667    1 1 0.0 36.680728 57.805494 13.270413
8668    1 1 0.0 33.097696 58.841270 12.051438
8669    1 2 0.0 35.004286 57.129602 15.928960
8670    1 2 0.0 32.149046 58.650766 10.339792
8671    1 2 0.0 31.547177 54.266016 10.843116
8672    1 2 0.0 34.695816 57.976843 12.297729
8673    1 2 0.0 33.853969 60.357307 13.321803
8674    1 2 0.0 37.162201 58.264450 15.134912
8675    1 2 0.0 31.686654 58.234340 12.314633
8676    1 2 0.0 29.390298 55.865236 10.181076
8677    1 1 0.0 44.107549 60.506924 23.673999
8678    1 1 0.0 37.192791 61.163215 18.704994
8679    1 1 0.0 43.992744 60.097640 20.368993
8680    1 1 0.0 40.717153 61.881303 19.150018
8681    1 2 0.0 42.210031 59.798946 23.027540
8682    1 2 0.0 39.749739 61.899732 17.438372
8683    1 2 0.0 38.216997 57.747747 17.941696
8684    1 2 0.0 42.091410 60.692758 19.396309
8685    1 2 0.0 41.782394 63.198716 20.420383
8686    1 2 0.0 44.561818 60.442041 22.233492
8687    1 2 0.0 39.208465 61.592750 19.413213
8688    1 2 0.0 36.455478 59.774241 17.279656
8689    1 1 0.0 51.827247 61.134926 30.772579
8690    1 1 0.0 45.216442 63.266088 25.803574
8691    1 1 0.0 51.626929 60.760004 27.467573
8692    1 1 0.0 48.812741 63.207716 26.248598
8693    1 2 0.0 49.821737 60.852547 30.126120
8694    1 2 0.0 47.872035 63.434213 24.536952
8695    1 2 0.0 45.480463 59.710148 25.040276
8696    1 2 0.0 49.898542 61.750919 26.494889
8697    1 2 0.0 50.136881 64.264583 27.518963
8698    1 2 0.0 52.256856 60.973663 29.332072
8699    1 2 0.0 47.277319 63.251102 26.511793
8700    1 2 0.0 44.197099 62.068666 24.378236
8701    1 1 0.0 58.044521 55.215574 37.217761
8702    1 1 0.0 52.848036 58.542655 32.219566
8703    1 1 0.0 58.225715 54.835698 33.753167
8704    1 1 0.0 56.431604 57.757374 32.354741
8705    1 2 0.0 56.122127 55.321786 36.653273
8706    1 2 0.0 55.931168 58.170875 30.479930
8707    1 2 0.0 52.395950 55.007957 31.532198
8708    1 2 0.0 56.992099 56.128748 32.717013
8709    1 2 0.0 57.910995 58.511621 33.477812
8710    1 2 0.0 58.635015 54.942968 35.670241
8711    1 2 0.0 54.813559 58.114212 32.801393
8712    1 2 0.0 51.805756 57.575802 30.791738
8713    1 1 0.0 64.296269 52.964182 44.316341
8714    1 1 0.0 59.938974 57.333038 39.318146
8715    1 1 0.0 64.391333 52.554182 40.851747
8716    1 1 0.0 63.269076 55.793868 39.453321
8717    1 2 0.0 62.441945 53.482220 43.751853
8718    1 2 0.0 62.869520 56.305507 37.578510
8719    1 2 0.0 58.735700 53.978846 38.630778
8720    1 2 0.0 63.465391 54.082717 39.815593
8721    1 2 0.0 64.876257 56.211545 40.576392
8722    1 2 0.0 64.814133 52.570717 42.768821
8723    1 2 0.0 61.765964 56.491047 39.899973
8724    1 2 0.0 58.712809 56.613543 37.890318
8725    1 1 0.0 69.915863 49.418301 51.414921
8726    1 1 0.0 66.602563 54.623583 46.416726
8727    1 1 0.0 69.920328 48.997447 47.950327
8728    1 1 0.0 69.522675 52.402869 46.551901
8729    1 2 0.0 68.216768 50.323814 50.850433
8730    1 2 0.0 69.242780 52.988598 44.677090
8731    1 2 0.0 64.704660 51.607553 45.729358
8732    1 2 0.0 69.345583 50.689623 46.914173
8733    1 2 0.0 71.182105 52.464345 47.674972
8734    1 2 0.0 70.336756 48.922471 49.867401
8735    1 2 0.0 68.205148 53.407620 46.998553
8736    1 2 0.0 65.250147 54.185265 44.988898
8737    1 1 0.0 74.639168 44.744596 58.513501
8738    1 1 0.0 72.525597 50.541642 53.515306
8739    1 1 0.0 74.552824 44.332671 55.048907
8740    1 1 0.0 74.898466 47.743765 53.650481
8741    1 2 0.0 73.175163 45.995025 57.949013
8742    1 2 0.0 74.751386 48.376052 51.775670
8743    1 2 0.0 70.022271 48.005536 52.827938
8744    1 2 0.0 74.356290 46.108949 54.012753
8745    1 2 0.0 76.532146 47.446149 54.773552
8746    1 2 0.0 74.943305 44.169707 56.965981
8747    1 2 0.0 73.828450 49.008861 54.097133
8748    1 2 0.0 71.110496 50.405103 52.087478
8749    1 1 0.0 78.244174 39.162746 65.612081
8750    1 1 0.0 77.429675 45.279078 60.613886
8751    1 1 0.0 78.071079 38.779111 62.147487
8752    1 1 0.0 79.143770 42.035545 60.749061
8753    1 2 0.0 77.084072 40.699315 65.047593
8754    1 2 0.0 79.136420 42.684672 58.874250
8755    1 2 0.0 74.438590 43.342100 59.926518
8756    1 2 0.0 78.261994 40.556002 61.111333
8757    1 2 0.0 80.674913 41.392827 61.872132
8758    1 2 0.0 78.417261 38.535818 64.064561
8759    1 2 0.0 78.371559 43.501523 61.195713
8760    1 2 0.0 76.018404 45.450735 59.186058
8761    1 1 0.0 80.561435 32.935113 72.710661
8762    1 1 0.0 81.084294 39.083246 67.712466
8763    1 1 0.0 80.309727 32.597800 69.246067
8764    1 1 0.0 82.059046 35.546513 67.847641
8765    1 2 0.0 79.759765 34.685600 72.146173
8766    1 2 0.0 82.191771 36.181968 65.972830
8767    1 2 0.0 77.746039 37.836440 67.025098
8768    1 2 0.0 80.879117 34.291784 68.209913
8769    1 2 0.0 83.415684 34.588901 68.970712
8770    1 2 0.0 80.595337 32.285614 71.163141
8771    1 2 0.0 81.620936 37.144468 68.294293
8772    1 2 0.0 79.743186 39.555032 66.284638
8773    1 1 0.0 81.482035 26.354413 79.809241
8774    1 1 0.0 83.317675 32.245368 74.811046
8775    1 1 0.0 81.163543 26.079276 76.344647
8776    1 1 0.0 83.507269 28.581670 74.946221
8777    1 2 0.0 81.076477 28.236540 79.244753
8778    1 2 0.0 83.773830 29.173586 73.071410
8779    1 2 0.0 79.789157 31.747336 74.123678
8780    1 2 0.0 82.084646 27.610733 75.308493
8781    1 2 0.0 84.625636 27.354177 76.069292
8782    1 2 0.0 81.375158 25.712871 78.261721
8783    1 2 0.0 83.423853 30.236495 75.392873
8784    1 2 0.0 82.109766 32.995106 73.383218
8785    1 1 0.0 80.962703 19.729957 86.907821
8786    1 1 0.0 84.024843 25.086842 81.909626
8787    1 1 0.0 80.592397 19.529929 83.443227
8788    1 1 0.0 83.420368 21.468385 82.044801
8789    1 2 0.0 80.972319 21.655259 86.343333
8790    1 2 0.0 83.808236 21.988940 80.169990
8791    1 2 0.0 80.471912 25.360995 81.222258
8792    1 2 0.0 81.821918 20.826875 82.407073
8793    1 2 0.0 84.247897 20.028704 83.167872
8794    1 2 0.0 80.720070 19.126528 85.360301
8795    1 2 0.0 83.695566 23.102297 82.491453
8796    1 2 0.0 83.006908 26.079294 80.481798
8797    1 1 0.0 79.027848 13.373114 94.006401
8798    1 1 0.0 83.172559 17.944141 89.008206
8799    1 1 0.0 78.623134 13.257597 90.541807
8800    1 1 0.0 81.802426 14.541001 89.143381
8801    1 2 0.0 79.452186 15.251096 93.441913
8802    1 2 0.0 82.293372 14.965727 87.268570
8803    1 2 0.0 79.762214 18.977592 88.320838
8804    1 2 0.0 80.103282 14.259071 89.505653
8805    1 2 0.0 82.300222 12.956803 90.266452
8806    1 2 0.0 78.660864 12.836159 92.458881
8807    1 2 0.0 82.423304 16.077202 89.590033
8808    1 2 0.0 82.392444 19.132658 87.580378
8809    1 1 0.0 75.768414 7.582673 101.104981
8810    1 1 0.0 80.800883 11.152991 96.106786
8811    1 1 0.0 75.348315 7.557096 97.640387
8812    1 1 0.0 78.729493 8.125126 96.241961
8813    1 2 0.0 76.587529 9.325065 100.540493
8814    1 2 0.0 79.300439 8.434060 94.367150
8815    1 2 0.0 77.693419 12.897164 95.419418
8816    1 2 0.0 77.009519 8.216027 96.604233
8817    1 2 0.0 78.874158 6.470871 97.365032
8818    1 2 0.0 75.294328 7.137431 99.557461
8819    1 2 0.0 79.666867 9.491410 96.688613
8820    1 2 0.0 80.295256 12.481709 94.678958
8821    1 1 0.0 71.337603 2.630801 108.203561
8822    1 1 0.0 77.021291 5.032594 103.205366
8823    1 1 0.0 70.921865 2.696366 104.738967
8824    1 1 0.0 74.346005 2.522322 103.340541
8825    1 2 0.0 72.512996 4.155705 107.639073
8826    1 2 0.0 74.970115 2.700943 101.465730
8827    1 2 0.0 74.362768 7.405510 102.517998
8828    1 2 0.0 72.686043 2.981783 103.702813
8829    1 2 0.0 74.130739 0.875766 104.463612
8830    1 2 0.0 70.778699 2.298199 106.656041
8831    1 2 0.0 75.555816 3.654471 103.787193
8832    1 2 0.0 76.813917 6.439061 101.777538
8833    1 1 0.0 65.943677 -1.249750 115.302141
8834    1 1 0.0 72.011434 -0.129372 110.303946
8835    1 1 0.0 65.551840 -1.096124 111.837547
8836    1 1 0.0 68.857997 -2.004062 110.439121
8837    1 2 0.0 67.420099 -0.014009 114.737653
8838    1 2 0.0 69.505937 -1.964149 108.564310
8839    1 2 0.0 69.926809 2.760751 109.616578
8840    1 2 0.0 67.336072 -1.197638 110.801393
8841    1 2 0.0 68.292918 -3.565526 111.562192
8842    1 2 0.0 65.326224 -1.454078 113.754621
8843    1 2 0.0 70.283381 -1.159263 110.885773
8844    1 2 0.0 72.112060 1.288734 108.876118
8845    1 1 0.0 59.840165 -3.876584 122.400721
8846    1 1 0.0 66.006789 -4.090282 117.402526
8847    1 1 0.0 59.490646 -3.642118 118.936127
8848    1 1 0.0 62.523422 -5.241273 117.537701
8849    1 2 0.0 61.548220 -2.988088 121.836233
8850    1 2 0.0 63.164737 -5.341945 115.662890
8851    1 2 0.0 64.594046 -0.818795 116.715158
8852    1 2 0.0 61.211068 -4.125790 117.899973
8853    1 2 0.0 61.635091 -6.644253 118.660772
8854    1 2 0.0 59.193185 -3.943034 120.853201
8855    1 2 0.0 64.097381 -4.723533 117.984353
8856    1 2 0.0 66.410686 -2.727190 115.974698
8857    1 1 0.0 53.313949 -5.126232 129.499301
8858    1 1 0.0 59.289591 -6.663961 124.501106
8859    1 1 0.0 53.023177 -4.821946 126.034707
8860    1 1 0.0 55.640023 -7.037154 124.636281
8861    1 2 0.0 55.173354 -4.626743 128.934813
8862    1 2 0.0 56.244568 -7.273679 122.761470
8863    1 2 0.0 58.615133 -3.164879 123.813738
8864    1 2 0.0 54.598924 -5.665043 124.998553
8865    1 2 0.0 54.470193 -8.215706 125.759352
8866    1 2 0.0 52.667852 -5.051680 127.951781
8867    1 2 0.0 57.288577 -6.870807 125.082933
8868    1 2 0.0 59.977775 -5.419954 123.073278
8869    1 1 0.0 46.671779 -4.939956 136.597881
8870    1 1 0.0 52.175568 -7.729440 131.599686
8871    1 1 0.0 46.453422 -4.580154 133.133287
8872    1 1 0.0 48.531338 -7.307294 131.734861
8873    1 2 0.0 48.595138 -4.852952 136.033393
8874    1 2 0.0 49.070699 -7.668553 129.860050
8875    1 2 0.0 52.271096 -4.167229 130.912318
8876    1 2 0.0 47.810428 -5.743048 132.097133
8877    1 2 0.0 47.134995 -8.206021 132.857932
8878    1 2 0.0 46.056934 -4.727908 135.050361
8879    1 2 0.0 50.177000 -7.500158 132.181513
8880    1 2 0.0 53.115692 -6.662988 130.171858
8881    1 1 0.0 40.225856 -3.326513 143.696461
8882    1 1 0.0 44.999099 -7.236637 138.698266
8883    1 1 0.0 40.090177 -2.928105 140.231867
8884    1 1 0.0 41.531495 -6.038994 138.833441
8885    1 2 0.0 42.122765 -3.656083 143.131973
8886    1 2 0.0 41.980321 -6.508009 136.958630
8887    1 2 0.0 45.860123 -3.778732 138.010898
8888    1 2 0.0 41.164660 -4.356136 139.195713
8889    1 2 0.0 39.974271 -6.615655 139.956512
8890    1 2 0.0 39.671163 -2.986934 142.148941
8891    1 2 0.0 43.096916 -6.582005 139.280093
8892    1 2 0.0 46.146974 -6.397867 137.270438
8893    1 1 0.0 34.279157 -0.361738 150.795041
8894    1 1 0.0 38.097497 -5.208716 145.796846
8895    1 1 0.0 34.232533 0.056548 147.330447
8896    1 1 0.0 34.969508 -3.291868 145.932021
8897    1 2 0.0 36.060455 -1.092392 150.230553
8898    1 2 0.0 35.306701 -3.846593 144.057210
8899    1 2 0.0 39.683547 -2.017648 145.109478
8900    1 2 0.0 34.973990 -1.569499 146.294293
8901    1 2 0.0 33.324596 -3.519358 147.055092
8902    1 2 0.0 33.810687 0.089409 149.247521
8903    1 2 0.0 36.381107 -4.159504 146.378673
8904    1 2 0.0 39.399170 -4.637053 144.369018
8905    1 1 0.0 29.111193 3.815015 157.893621
8906    1 1 0.0 31.795158 -1.740995 152.895426
8907    1 1 0.0 29.155815 4.233520 154.429027
8908    1 1 0.0 29.153807 0.804960 153.030601
8909    1 2 0.0 30.693155 2.717621 157.329133
8910    1 2 0.0 29.363520 0.190599 151.155790
8911    1 2 0.0 34.031684 1.033247 152.208058
8912    1 2 0.0 29.529395 2.485885 153.392873
8913    1 2 0.0 27.498524 0.937334 154.153672
8914    1 2 0.0 28.750966 4.356526 156.346101
8915    1 2 0.0 30.345235 -0.346518 153.477253
8916    1 2 0.0 33.189447 -1.463309 151.467598
8917    1 1 0.0 24.964873 9.007428 164.992201
8918    1 1 0.0 26.388309 3.003533 159.994006
8919    1 1 0.0 25.098644 9.406480 161.527607
8920    1 1 0.0 24.357747 6.058929 160.129181
8921    1 2 0.0 26.273142 7.594873 164.427713
8922    1 2 0.0 24.430122 5.413808 158.254370
8923    1 2 0.0 29.170189 5.230553 159.306638
8924    1 2 0.0 25.086788 7.619402 160.491453
8925    1 2 0.0 22.769895 6.544945 161.252252
8926    1 2 0.0 24.729820 9.613850 163.444681
8927    1 2 0.0 25.273004 4.677731 160.575833
8928    1 2 0.0 27.809678 2.974191 158.566178
8929    1 1 0.0 22.035086 14.971442 172.090781
8930    1 1 0.0 22.131087 8.801863 167.092586
8931    1 1 0.0 22.251718 15.332285 168.626187
8932    1 1 0.0 20.806756 12.223087 167.227761
8933    1 2 0.0 23.008170 13.310121 171.526293
8934    1 2 0.0 20.738391 11.577529 165.352950
8935    1 2 0.0 25.327564 10.376983 166.405218
8936    1 2 0.0 21.854983 13.589761 167.590033
8937    1 2 0.0 19.360969 13.039901 168.350832
8938    1 2 0.0 21.936255 15.614272 170.543261
8939    1 2 0.0 21.402823 10.677090 167.674413
8940    1 2 0.0 23.512728 8.466872 165.664758
8941    1 1 0.0 20.459539 21.426732 179.189361
8942    1 1 0.0 19.223593 15.381457 174.191166
8943    1 1 0.0 20.748851 21.732405 175.724767
8944    1 1 0.0 18.667742 19.007702 174.326341
8945    1 2 0.0 21.051700 19.594732 178.624873
8946    1 2 0.0 18.461850 18.392049 172.451530
8947    1 2 0.0 22.684425 16.230642 173.503798
8948    1 2 0.0 19.985884 20.116339 174.688613
8949    1 2 0.0 17.431975 20.116920 175.449412
8950    1 2 0.0 20.501577 22.075755 177.641841
8951    1 2 0.0 18.916601 17.369571 174.772993
8952    1 2 0.0 20.500565 14.756562 172.763338
8953    1 1 0.0 20.312289 28.069881 186.287941
8954    1 1 0.0 17.802488 22.433054 181.289746
8955    1 1 0.0 20.660681 28.306018 182.823347
8956    1 1 0.0 18.041242 26.093877 181.424921
8957    1 2 0.0 20.495693 26.153311 185.723453
8958    1 2 0.0 17.707502 25.537067 179.550110
8959    1 2 0.0 21.365005 22.516392 180.602378
8960    1 2 0.0 19.567344 26.892369 181.787193
8961    1 2 0.0 17.073581 27.443364 182.547992
8962    1 2 0.0 20.493218 28.694592 184.740421
8963    1 2 0.0 17.931197 24.440609 181.871573
8964    1 2 0.0 18.914770 21.547627 179.861918
8965    1 1 0.0 21.600255 34.588644 193.386521
8966    1 1 0.0 17.934569 29.625211 188.388326
8967    1 1 0.0 21.991353 34.744144 189.921927
8968    1 1 0.0 18.956706 33.148542 188.523501
8969    1 2 0.0 21.366283 32.677587 192.822033
8970    1 2 0.0 18.510803 32.676748 186.648690
8971    1 2 0.0 21.431323 28.938783 187.700958
8972    1 2 0.0 20.619036 33.599357 188.885773
8973    1 2 0.0 18.302632 34.674869 189.646572
8974    1 2 0.0 21.911572 35.159678 191.839001
8975    1 2 0.0 18.492928 31.557846 188.970153
8976    1 2 0.0 18.829880 28.520870 186.960498
8977    1 1 0.0 24.262901 40.676618 200.485101
8978    1 1 0.0 19.613625 36.619876 195.486906
8979    1 1 0.0 24.678321 40.744173 197.020507
8980    1 1 0.0 21.371102 39.840109 195.622081
8981    1 2 0.0 23.622550 38.860901 199.920613
8982    1 2 0.0 20.833996 39.475505 193.747270
8983    1 2 0.0 22.880259 35.195947 194.799538
8984    1 2 0.0 23.091527 39.922058 195.984353
8985    1 2 0.0 21.061360 41.471533 196.745152
8986    1 2 0.0 24.689973 41.167136 198.937581
8987    1 2 0.0 20.575391 38.386752 196.068733
8988    1 2 0.0 20.249884 35.348528 194.059078
8989    1 1 0.0 28.175074 46.047654 2.261805
8990    1 1 0.0 22.760739 43.088280 202.585486
8991    1 1 0.0 28.595290 46.024088 204.119087
8992    1 1 0.0 25.170949 45.854055 202.720661
8993    1 2 0.0 27.158441 44.412619 1.697317
8994    1 2 0.0 24.567884 45.613779 200.845850
8995    1 2 0.0 25.643711 40.993777 201.898118
8996    1 2 0.0 26.868603 45.563285 203.082933
8997    1 2 0.0 25.220097 47.513895 203.843732
8998    1 2 0.0 28.697827 46.434599 0.714285
8999    1 2 0.0 24.080705 44.606348 203.167313
9000    1 2 0.0 23.108038 41.709681 201.157658
9001    1 1 0.0 33.152891 50.449296 9.360385
9002    1 1 0.0 27.227985 48.726390 4.362190
9003    1 1 0.0 33.558153 50.335717 5.895791
9004    1 1 0.0 30.177642 50.907707 4.497365
9005    1 2 0.0 31.807762 49.071796 8.795897
9006    1 2 0.0 29.536965 50.803053 2.622554
9007    1 2 0.0 29.591789 46.059762 3.674822
9008    1 2 0.0 31.772731 50.257887 4.859637
9009    1 2 0.0 30.583370 52.517946 5.620436
9010    1 2 0.0 33.746755 50.714482 7.812865
9011    1 2 0.0 28.844110 49.924297 4.944017
9012    1 2 0.0 27.270002 47.305339 2.934362
9013    1 1 0.0 38.962381 53.674656 16.458965
9014    1 1 0.0 32.805391 53.269198 11.460770
9015    1 1 0.0 39.333640 53.476403 12.994371
9016    1 1 0.0 36.155853 54.763531 11.595945
9017    1 2 0.0 37.351980 52.619436 15.894477
9018    1 2 0.0 35.507677 54.799416 9.721134
9019    1 2 0.0 34.538920 50.155784 10.773402
9020    1 2 0.0 37.573403 53.785202 11.958217
9021    1 2 0.0 36.899091 56.248483 12.719016
9022    1 2 0.0 39.599442 53.805618 14.911445
9023    1 2 0.0 34.641713 54.090640 12.042597
9024    1 2 0.0 32.540150 51.872488 10.032942
9025    1 1 0.0 45.330481 55.572132 23.557545
9026    1 1 0.0 39.230804 56.503181 18.559350
9027    1 1 0.0 45.650287 55.298523 20.092951
9028    1 1 0.0 42.824589 57.240290 18.694525
9029    1 2 0.0 43.530502 54.888791 22.993057
9030    1 2 0.0 42.199381 57.415030 16.819714
9031    1 2 0.0 40.252578 53.089319 17.871982
9032    1 2 0.0 43.997972 55.979438 19.056797
9033    1 2 0.0 43.870402 58.530158 19.817596
9034    1 2 0.0 45.980796 55.562714 22.010025
9035    1 2 0.0 41.201009 56.909546 19.141177
9036    1 2 0.0 38.670772 55.196461 17.131522
9037    1 1 0.0 51.957873 56.052538 30.656125
9038    1 1 0.0 46.202210 58.276331 25.657930
9039    1 1 0.0 52.211194 55.716433 27.191531
9040    1 1 0.0 49.870401 58.221571 25.793105
9041    1 2 0.0 50.052920 55.773194 30.091637
9042    1 2 0.0 49.297547 58.526952 23.918294
9043    1 2 0.0 46.464203 54.722483 24.970562
9044    1 2 0.0 50.744464 56.737459 26.155377
9045    1 2 0.0 51.169633 59.255728 26.916176
9046    1 2 0.0 52.590875 55.903183 29.108605
9047    1 2 0.0 48.213694 58.248520 26.239757
9048    1 2 0.0 45.373711 57.121021 24.230102
9049    1 1 0.0 56.999207 50.241739 37.246538
9050    1 1 0.0 52.687902 53.461501 32.190694
9051    1 1 0.0 57.362147 49.840399 33.864760
9052    1 1 0.0 56.041787 52.700372 32.285787
9053    1 2 0.0 55.284571 50.306765 36.664882
9054    1 2 0.0 55.781527 53.108755 30.368177
9055    1 2 0.0 52.234308 49.927104 31.579142
9056    1 2 0.0 56.405623 51.092604 32.750086
9057    1 2 0.0 57.417961 53.463607 33.329985
9058    1 2 0.0 57.629438 49.967713 35.738404
9059    1 2 0.0 54.481174 53.044521 32.754823
9060    1 2 0.0 51.818722 52.492890 30.780179
9061    1 1 0.0 62.203541 48.332529 44.345118
9062    1 1 0.0 58.687493 52.405811 39.289274
9063    1 1 0.0 62.471453 47.862399 40.963340
9064    1 1 0.0 61.798516 50.939728 39.384367
9065    1 2 0.0 60.543216 48.765571 43.763462
9066    1 2 0.0 61.632389 51.394605 37.466757
9067    1 2 0.0 57.482813 49.052237 38.677722
9068    1 2 0.0 61.807289 49.291328 39.848666
9069    1 2 0.0 63.306844 51.388427 40.428565
9070    1 2 0.0 62.759902 47.929113 42.836984
9071    1 2 0.0 60.348752 51.612138 39.853403
9072    1 2 0.0 57.629982 51.647292 37.878759
9073    1 1 0.0 66.874087 45.346531 51.443698
9074    1 1 0.0 64.318559 50.081876 46.387854
9075    1 1 0.0 67.034378 44.829707 48.061920
9076    1 1 0.0 67.040493 47.979749 46.482947
9077    1 2 0.0 65.346113 46.127235 50.862042
9078    1 2 0.0 66.976308 48.459740 44.565337
9079    1 2 0.0 62.419416 47.066753 45.776302
9080    1 2 0.0 66.693791 46.368198 46.947246
9081    1 2 0.0 68.610078 48.092822 47.527145
9082    1 2 0.0 67.330426 44.832687 49.935564
9083    1 2 0.0 65.769721 48.948815 46.951983
9084    1 2 0.0 63.122422 49.569103 44.977339
9085    1 1 0.0 70.791314 41.424094 58.542278
9086    1 1 0.0 69.316425 46.598929 53.486434
9087    1 1 0.0 70.836451 40.884870 55.160500
9088    1 1 0.0 71.521331 43.959563 53.581527
9089    1 2 0.0 69.467510 42.515765 57.960622
9090    1 2 0.0 71.562103 44.442107 51.663917
9091    1 2 0.0 66.812083 44.063976 52.874882
9092    1 2 0.0 70.835449 42.460609 54.045826
9093    1 2 0.0 73.078399 43.731696 54.625725
9094    1 2 0.0 71.126183 40.823974 57.034144
9095    1 2 0.0 70.489280 45.179736 54.050563
9096    1 2 0.0 68.037884 46.356002 52.075919
9097    1 1 0.0 73.771103 36.749584 65.640858
9098    1 1 0.0 73.446175 42.120677 60.585014
9099    1 1 0.0 73.698963 36.213305 62.259080
9100    1 1 0.0 75.030417 39.068130 60.680107
9101    1 2 0.0 72.713691 38.100911 65.059202
9102    1 2 0.0 75.174231 39.530547 58.762497
9103    1 2 0.0 70.454346 40.185044 59.973462
9104    1 2 0.0 74.037594 37.752227 61.144406
9105    1 2 0.0 76.501781 38.510033 61.724305
9106    1 2 0.0 73.968762 36.091395 64.132724
9107    1 2 0.0 74.285597 40.482059 61.149143
9108    1 2 0.0 72.145325 42.159016 59.174499
9109    1 1 0.0 75.673394 31.542716 72.739438
9110    1 1 0.0 76.513701 36.857611 67.683594
9111    1 1 0.0 75.487369 31.034588 69.357660
9112    1 1 0.0 77.402814 33.535361 67.778687
9113    1 2 0.0 74.932076 33.090183 72.157782
9114    1 2 0.0 77.642910 33.955915 65.861077
9115    1 2 0.0 73.175010 35.612278 67.072042
9116    1 2 0.0 76.149716 32.464361 68.242986
9117    1 2 0.0 78.719316 32.673267 68.822885
9118    1 2 0.0 75.724553 30.857396 71.231304
9119    1 2 0.0 76.980235 35.076587 68.247723
9120    1 2 0.0 75.251686 37.175412 66.273079
9121    1 1 0.0 76.408775 26.048229 79.838018
9122    1 1 0.0 78.374820 31.057109 74.782174
9123    1 1 0.0 76.117608 25.592135 76.456240
9124    1 1 0.0 78.527014 27.621313 74.877267
9125    1 2 0.0 76.018395 27.719099 79.256362
9126    1 2 0.0 78.852107 27.980236 72.959657
9127    1 2 0.0 74.846194 30.560611 74.170622
9128    1 2 0.0 77.072540 26.845554 75.341566
9129    1 2 0.0 79.626774 26.495741 75.921465
9130    1 2 0.0 76.311029 25.367988 78.329884
9131    1 2 0.0 78.446536 29.217393 75.346303
9132    1 2 0.0 77.210958 31.639437 73.371659
9133    1 1 0.0 75.942682 20.524377 86.936598
9134    1 1 0.0 78.942054 24.991812 81.880754
9135    1 1 0.0 75.560058 20.141756 83.554820
9136    1 1 0.0 78.350176 21.603960 81.975847
9137    1 2 0.0 75.921588 22.240115 86.354942
9138    1 2 0.0 78.744985 21.884384 80.058237
9139    1 2 0.0 75.389348 25.267486 81.269202
9140    1 2 0.0 76.762689 21.159907 82.440146
9141    1 2 0.0 79.181503 20.267817 83.020045
9142    1 2 0.0 75.700624 19.881190 85.428464
9143    1 2 0.0 78.615583 23.179876 82.444883
9144    1 2 0.0 77.931050 25.811294 80.470239
9145    1 1 0.0 74.297020 15.230798 94.035178
9146    1 1 0.0 78.188742 18.946806 88.979334
9147    1 1 0.0 73.840925 14.939633 90.653400
9148    1 1 0.0 76.880611 15.766137 89.074427
9149    1 2 0.0 74.646205 16.910760 93.453522
9150    1 2 0.0 77.326580 15.954879 87.156817
9151    1 2 0.0 74.778944 19.981693 88.367782
9152    1 2 0.0 75.234728 15.674661 89.538726
9153    1 2 0.0 77.404430 14.282224 90.118625
9154    1 2 0.0 73.922030 14.654895 92.527044
9155    1 2 0.0 77.479428 17.247815 89.543463
9156    1 2 0.0 77.378115 19.964925 87.568819
9157    1 1 0.0 71.549142 10.416304 101.133758
9158    1 1 0.0 76.150291 13.206223 96.077914
9159    1 1 0.0 71.041013 10.230281 97.751980
9160    1 1 0.0 74.187393 10.382237 96.173007
9161    1 2 0.0 72.252192 11.981528 100.552102
9162    1 2 0.0 74.663560 10.470427 94.255397
9163    1 2 0.0 73.043671 14.951681 95.466362
9164    1 2 0.0 72.560476 10.647638 96.637306
9165    1 2 0.0 74.379083 8.820303 97.217205
9166    1 2 0.0 71.058844 9.934756 99.625624
9167    1 2 0.0 75.091474 11.700034 96.642043
9168    1 2 0.0 75.578144 14.375123 94.667399
9169    1 1 0.0 67.828206 6.307191 108.232338
9170    1 1 0.0 72.922515 8.039886 103.176494
9171    1 1 0.0 67.291926 6.235054 104.850560
9172    1 1 0.0 70.397112 5.705319 103.271587
9173    1 2 0.0 68.852076 7.684105 107.650682
9174    1 2 0.0 70.881094 5.688811 101.353977
9175    1 2 0.0 70.265092 10.413873 102.564942
9176    1 2 0.0 68.865630 6.315122 103.735886
9177    1 2 0.0 70.247663 4.138779 104.315785
9178    1 2 0.0 67.245645 5.942630 106.724204
9179    1 2 0.0 71.563962 6.797295 103.740623
9180    1 2 0.0 72.615740 9.304627 101.765979
9181    1 1 0.0 63.309105 3.096598 115.330918
9182    1 1 0.0 68.657127 3.690627 110.275074
9183    1 1 0.0 62.769881 3.141737 111.949140
9184    1 1 0.0 65.687920 1.955210 110.370167
9185    1 2 0.0 64.605670 4.220485 114.749262
9186    1 2 0.0 66.156971 1.834781 108.452557
9187    1 2 0.0 66.573808 6.581561 109.663522
9188    1 2 0.0 64.323857 2.880753 110.834466
9189    1 2 0.0 65.204357 0.457696 111.414365
9190    1 2 0.0 62.661663 2.866161 113.822784
9191    1 2 0.0 67.062694 2.770040 110.839203
9192    1 2 0.0 68.630143 4.991762 108.864559
9193    1 1 0.0 58.204250 0.935432 122.429498
9194    1 1 0.0 63.554614 0.362875 117.373654
9195    1 1 0.0 57.687427 1.095726 119.047720
9196    1 1 0.0 60.281164 -0.691823 117.468747
9197    1 2 0.0 59.712568 1.753465 121.847842
9198    1 2 0.0 60.713235 -0.910514 115.551137
9199    1 2 0.0 62.143321 3.634872 116.762102
9200    1 2 0.0 59.148634 0.505956 117.933046
9201    1 2 0.0 59.486215 -2.049924 118.512945
9202    1 2 0.0 57.522359 0.849949 120.921364
9203    1 2 0.0 61.799244 -0.192439 117.937783
9204    1 2 0.0 63.808690 1.639247 115.963139
9205    1 1 0.0 52.753583 -0.074726 129.528078
9206    1 1 0.0 57.854807 -1.786958 124.472234
9207    1 1 0.0 52.283454 0.193188 126.146300
9208    1 1 0.0 54.430975 -2.111362 124.567327
9209    1 2 0.0 54.402760 0.399004 128.946422
9210    1 2 0.0 54.805759 -2.418035 122.649717
9211    1 2 0.0 57.181874 1.712310 123.860682
9212    1 2 0.0 53.583211 -0.697646 125.031626
9213    1 2 0.0 53.362005 -3.266216 125.611525
9214    1 2 0.0 52.069295 -0.011236 128.019944
9215    1 2 0.0 56.021007 -1.950897 125.036363
9216    1 2 0.0 58.378000 -0.595342 123.061719
9217    1 1 0.0 47.213302 0.113604 136.626658
9218    1 1 0.0 51.825613 -2.657823 131.570814
9219    1 1 0.0 46.811964 0.476546 133.244880
9220    1 1 0.0 48.412329 -2.236686 131.665907
9221    1 2 0.0 48.925821 0.220764 136.045002
9222    1 2 0.0 48.712210 -2.616927 129.748297
9223    1 2 0.0 51.922671 0.904240 130.959262
9224    1 2 0.0 47.889179 -0.673481 132.130206
9225    1 2 0.0 47.119584 -3.134011 132.710105
9226    1 2 0.0 46.558779 0.323082 135.118524
9227    1 2 0.0 49.999577 -2.422682 132.134943
9228    1 2 0.0 52.593332 -1.606972 130.160299
9229    1 1 0.0 41.843815 1.491570 143.725238
9230    1 1 0.0 45.750422 -2.208786 138.669394
9231    1 1 0.0 41.530131 1.932481 140.343460
9232    1 1 0.0 42.508120 -1.061903 138.764487
9233    1 2 0.0 43.539183 1.227123 143.143582
9234    1 2 0.0 42.719003 -1.497839 136.846877
9235    1 2 0.0 46.612908 1.248645 138.057842
9236    1 2 0.0 42.334172 0.577316 139.228786
9237    1 2 0.0 41.052361 -1.659522 139.808685
9238    1 2 0.0 41.249822 1.837191 142.217104
9239    1 2 0.0 44.017979 -1.585618 139.233523
9240    1 2 0.0 46.726582 -1.348094 137.258879
9241    1 1 0.0 36.897503 3.994405 150.823818
9242    1 1 0.0 39.914785 -0.460955 145.767974
9243    1 1 0.0 36.686218 4.492559 147.442040
9244    1 1 0.0 36.995862 1.357768 145.863067
9245    1 2 0.0 38.496033 3.370780 150.242162
9246    1 2 0.0 37.107834 0.886626 143.945457
9247    1 2 0.0 41.502159 2.729335 145.156422
9248    1 2 0.0 37.179293 2.995953 146.327366
9249    1 2 0.0 35.445514 1.087944 146.907265
9250    1 2 0.0 36.391959 4.459922 149.315684
9251    1 2 0.0 38.357364 0.520951 146.332103
9252    1 2 0.0 41.053503 0.169124 144.357459
9253    1 1 0.0 32.606857 7.504466 157.922398
9254    1 1 0.0 34.592992 2.503518 152.866554
9255    1 1 0.0 32.507901 8.036451 154.540620
9256    1 1 0.0 32.134646 4.908596 152.961647
9257    1 2 0.0 34.033413 6.550977 157.340742
9258    1 2 0.0 32.142444 4.424394 151.044037
9259    1 2 0.0 36.830645 5.276715 152.255002
9260    1 2 0.0 32.666834 6.468747 153.425946
9261    1 2 0.0 30.562580 4.979250 154.005845
9262    1 2 0.0 32.213524 8.068000 156.414264
9263    1 2 0.0 33.283797 3.798009 153.430683
9264    1 2 0.0 35.840746 2.873369 151.456039
9265    1 1 0.0 29.173548 11.856773 165.020978
9266    1 1 0.0 30.035183 6.545295 159.965134
9267    1 1 0.0 29.191574 12.397582 161.639200
9268    1 1 0.0 28.152963 9.423682 160.060227
9269    1 2 0.0 30.361079 10.618235 164.439322
9270    1 2 0.0 28.056221 8.949179 158.142617
9271    1 2 0.0 32.817938 8.771051 159.353582
9272    1 2 0.0 29.008893 10.832468 160.524526
9273    1 2 0.0 26.633071 9.831493 161.104425
9274    1 2 0.0 28.910914 12.491836 163.512844
9275    1 2 0.0 29.035750 8.091526 160.529263
9276    1 2 0.0 31.333325 6.637533 158.554619
9277    1 1 0.0 26.758953 16.846754 172.119558
9278    1 1 0.0 26.455588 11.474400 167.063714
9279    1 1 0.0 26.893112 17.370969 168.737780
9280    1 1 0.0 25.237964 14.690804 167.158807
9281    1 2 0.0 27.651640 15.381383 171.537902
9282    1 2 0.0 25.041229 14.248303 165.241197
9283    1 2 0.0 29.652648 13.048098 166.452162
9284    1 2 0.0 26.377406 15.882009 167.623106
9285    1 2 0.0 23.841684 15.416605 168.203005
9286    1 2 0.0 26.639362 17.523496 170.611424
9287    1 2 0.0 25.812892 13.199695 167.627843
9288    1 2 0.0 27.743102 11.284690 165.653199
9289    1 1 0.0 25.476563 22.239866 179.218138
9290    1 1 0.0 24.022458 17.059153 174.162294
9291    1 1 0.0 25.720550 22.722847 175.836360
9292    1 1 0.0 23.526661 20.462393 174.257387
9293    1 2 0.0 26.032449 20.616538 178.636482
9294    1 2 0.0 23.239180 20.072693 172.339777
9295    1 2 0.0 27.483551 17.906824 173.550742
9296    1 2 0.0 24.896057 21.380027 174.721686
9297    1 2 0.0 22.319623 21.472068 175.301585
9298    1 2 0.0 25.505637 22.926478 177.710004
9299    1 2 0.0 23.766708 18.882416 174.726423
9300    1 2 0.0 25.238826 16.596411 172.751779
9301    1 1 0.0 25.386655 27.782618 186.316718
9302    1 1 0.0 22.850157 23.037053 181.260874
9303    1 1 0.0 25.729002 28.201663 182.934940
9304    1 1 0.0 23.099491 26.467169 181.355967
9305    1 2 0.0 25.579611 26.077634 185.735062
9306    1 2 0.0 22.734776 26.148586 179.438357
9307    1 2 0.0 26.412603 23.118855 180.649322
9308    1 2 0.0 24.634476 27.068099 181.820266
9309    1 2 0.0 22.138429 27.713260 182.400165
9310    1 2 0.0 25.563027 28.446828 184.808584
9311    1 2 0.0 22.993374 24.872587 181.825003
9312    1 2 0.0 23.938207 22.323030 179.850359
9313    1 1 0.0 26.493455 33.214485 193.415298
9314    1 1 0.0 22.993786 29.127122 188.359454
9315    1 1 0.0 26.918070 33.549898 190.033520
9316    1 1 0.0 23.976531 32.422888 188.454547
9317    1 2 0.0 26.314411 31.507983 192.833642
9318    1 2 0.0 23.551726 32.190397 186.536937
9319    1 2 0.0 26.490140 28.439210 187.747902
9320    1 2 0.0 25.604957 32.678870 188.918846
9321    1 2 0.0 23.306618 33.846826 189.498745
9322    1 2 0.0 26.808835 33.825073 191.907164
9323    1 2 0.0 23.529239 30.888653 188.923583
9324    1 2 0.0 23.902376 28.195380 186.948939
9325    1 1 0.0 28.744940 38.280154 200.513878
9326    1 1 0.0 24.446594 35.043112 195.458034
9327    1 1 0.0 29.231865 38.516169 197.132100
9328    1 1 0.0 26.116559 38.049617 195.553127
9329    1 2 0.0 28.202312 36.652345 199.932222
9330    1 2 0.0 25.651630 37.914146 193.635517
9331    1 2 0.0 27.712517 33.617819 194.846482
9332    1 2 0.0 27.761885 37.948619 196.017426
9333    1 2 0.0 25.769283 39.584473 196.597325
9334    1 2 0.0 29.184504 38.808420 199.005744
9335    1 2 0.0 25.349114 36.647841 196.022163
9336    1 2 0.0 25.133019 33.937444 194.047519
9337    1 1 0.0 32.035283 42.741523 2.290582
9338    1 1 0.0 27.140295 40.506952 202.556614
9339    1 1 0.0 32.561632 42.867048 204.230680
9340    1 1 0.0 29.418988 43.082884 202.651707
9341    1 2 0.0 31.154577 41.268920 1.708926
9342    1 2 0.0 28.935788 43.050799 200.734097
9343    1 2 0.0 30.022280 38.411272 201.945062
9344    1 2 0.0 31.003878 42.629652 203.116006
9345    1 2 0.0 29.410670 44.656514 203.695905
9346    1 2 0.0 32.578371 43.162638 0.782448
9347    1 2 0.0 28.367462 41.879453 203.120743
9348    1 2 0.0 27.572290 39.279328 201.146099
9349    1 1 0.0 36.209830 46.388898 9.389162
9350    1 1 0.0 30.948278 45.261828 4.333318
9351    1 1 0.0 36.750863 46.398032 6.007384
9352    1 1 0.0 33.728593 47.286109 4.428411
9353    1 2 0.0 35.032441 45.140716 8.807506
9354    1 2 0.0 33.249834 47.358920 2.510801
9355    1 2 0.0 33.310864 42.594263 3.721766
9356    1 2 0.0 35.178554 46.501947 4.892710
9357    1 2 0.0 34.059625 48.824550 5.472609
9358    1 2 0.0 36.830915 46.683067 7.881028
9359    1 2 0.0 32.442412 46.337590 4.897447
9360    1 2 0.0 31.105539 43.969950 2.922803
9361    1 1 0.0 41.072366 49.050839 16.487742
9362    1 1 0.0 35.691557 49.084247 11.431898
9363    1 1 0.0 41.602652 48.943153 13.105964
9364    1 1 0.0 38.842811 50.461731 11.526991
9365    1 2 0.0 39.653633 48.085747 15.906086
9366    1 2 0.0 38.390996 50.636014 9.609381
9367    1 2 0.0 37.423695 45.970180 10.820346
9368    1 2 0.0 40.089690 49.383497 11.991290
9369    1 2 0.0 39.497634 51.892671 12.571189
9370    1 2 0.0 41.742254 49.204237 14.979608
9371    1 2 0.0 37.382429 49.812705 11.996027
9372    1 2 0.0 35.566691 47.788836 10.021383
9373    1 1 0.0 46.394336 50.602230 23.586322
9374    1 1 0.0 41.147184 51.794544 18.530478
9375    1 1 0.0 46.888951 50.382785 20.204544
9376    1 1 0.0 44.521260 52.460485 18.625571
9377    1 2 0.0 44.800946 49.965589 23.004666
9378    1 2 0.0 44.117625 52.728050 16.707961
9379    1 2 0.0 42.167459 48.380346 17.918926
9380    1 2 0.0 45.506451 51.138859 19.089870
9381    1 2 0.0 45.469096 53.716666 19.669769
9382    1 2 0.0 47.081542 50.607645 22.078188
9383    1 2 0.0 42.955318 52.141460 19.094607
9384    1 2 0.0 40.746061 50.556489 17.119963
9385    1 1 0.0 51.925594 50.970149 30.684902
9386    1 1 0.0 47.058730 53.265329 25.629058
9387    1 1 0.0 52.361289 50.649261 27.303124
9388    1 1 0.0 50.497036 53.188426 25.724151
9389    1 2 0.0 50.232440 50.691884 30.103246
9390    1 2 0.0 50.160554 53.536695 23.806541
9391    1 2 0.0 47.319186 49.711475 25.017506
9392    1 2 0.0 51.174232 51.685527 26.188450
9393    1 2 0.0 51.693333 54.210803 26.768349
9394    1 2 0.0 52.597817 50.827328 29.176768
9395    1 2 0.0 48.899139 53.214395 26.193187
9396    1 2 0.0 46.400203 52.142821 24.218543
9397    1 1 0.0 55.776581 45.303995 37.436631
9398    1 1 0.0 52.415348 48.384607 32.262115
9399    1 1 0.0 55.997752 44.918995 34.427674
9400    1 1 0.0 55.263278 47.679303 32.564830
9401    1 2 0.0 54.388733 45.301323 36.729147
9402    1 2 0.0 55.134908 48.073652 30.700136
9403    1 2 0.0 51.910643 44.849725 31.770564
9404    1 2 0.0 55.383383 46.103976 33.173947
9405    1 2 0.0 56.516344 48.469034 33.549514
9406    1 2 0.0 56.259960 45.060320 36.136577
9407    1 2 0.0 53.925937 47.991744 32.907498
9408    1 2 0.0 51.685626 47.409978 30.898835
9409    1 1 0.0 59.945447 43.774333 44.535211
9410    1 1 0.0 57.327154 47.506972 39.360695
9411    1 1 0.0 60.078444 43.350714 41.526254
9412    1 1 0.0 59.956143 46.204448 39.663410
9413    1 2 0.0 58.589640 44.070839 43.827727
9414    1 2 0.0 59.915782 46.617196 37.798716
9415    1 2 0.0 56.072459 44.163941 38.869144
9416    1 2 0.0 59.733906 44.640257 40.272527
9417    1 2 0.0 61.349966 46.705553 40.648094
9418    1 2 0.0 60.364949 43.432205 43.235157
9419    1 2 0.0 58.717571 46.797775 40.006078
9420    1 2 0.0 56.404526 46.712521 37.997415
9421    1 1 0.0 63.686662 41.382132 51.633791
9422    1 1 0.0 61.934374 45.591353 46.459275
9423    1 1 0.0 63.725233 40.939804 48.624834
9424    1 1 0.0 64.220854 43.752830 46.761990
9425    1 2 0.0 62.426622 41.963878 50.926307
9426    1 2 0.0 64.270398 44.164576 44.897296
9427    1 2 0.0 59.988663 42.597304 45.967724
9428    1 2 0.0 63.666719 42.273297 47.371107
9429    1 2 0.0 65.689920 43.941757 47.746674
9430    1 2 0.0 64.022568 40.957631 50.333737
9431    1 2 0.0 63.139265 44.599154 47.104658
9432    1 2 0.0 60.862206 45.014421 45.095995
9433    1 1 0.0 66.824376 38.239829 58.732371
9434    1 1 0.0 66.020457 42.727788 53.557855
9435    1 1 0.0 66.766708 37.799584 55.723414
9436    1 1 0.0 67.856955 40.439682 53.860570
9437    1 2 0.0 65.719328 39.079472 58.024887
9438    1 2 0.0 67.994076 40.831074 51.995876
9439    1 2 0.0 63.475184 40.223450 53.066304
9440    1 2 0.0 66.996969 39.114350 54.469687
9441    1 2 0.0 69.332215 40.307550 54.845254
9442    1 2 0.0 67.060898 37.752910 57.432317
9443    1 2 0.0 66.983189 41.499225 54.203238
9444    1 2 0.0 64.849143 42.395492 52.194575
9445    1 1 0.0 69.211108 34.495124 65.830951
9446    1 1 0.0 69.393344 39.050872 60.656435
9447    1 1 0.0 69.059913 34.077653 62.821994
9448    1 1 0.0 70.693541 36.420731 60.959150
9449    1 2 0.0 68.312994 35.553198 65.123467
9450    1 2 0.0 70.911794 36.773372 59.094456
9451    1 2 0.0 66.368145 37.153957 60.164884
9452    1 2 0.0 69.568125 35.311894 61.568267
9453    1 2 0.0 72.105653 35.973751 61.943834
9454    1 2 0.0 69.337129 33.968671 64.530897
9455    1 2 0.0 70.068666 37.643691 61.301818
9456    1 2 0.0 68.177940 38.978832 59.293155
9457    1 1 0.0 70.734676 30.324026 72.929531
9458    1 1 0.0 71.894501 34.733432 67.755015
9459    1 1 0.0 70.497060 29.948953 69.920574
9460    1 1 0.0 72.597284 31.884880 68.057730
9461    1 2 0.0 70.085709 31.550799 72.222047
9462    1 2 0.0 72.886410 32.182194 66.193036
9463    1 2 0.0 68.531568 33.533100 67.263464
9464    1 2 0.0 71.259336 31.044655 68.666847
9465    1 2 0.0 73.879874 31.144061 69.042414
9466    1 2 0.0 70.744272 29.782786 71.629477
9467    1 2 0.0 72.250671 33.213773 68.400398
9468    1 2 0.0 70.692135 34.925033 66.391735
9469    1 1 0.0 71.323468 25.922590 80.028111
9470    1 1 0.0 73.406367 29.978399 74.853595
9471    1 1 0.0 71.010598 25.607544 77.019154
9472    1 1 0.0 73.478703 27.045325 75.156310
9473    1 2 0.0 70.954151 27.260400 79.320627
9474    1 2 0.0 73.825112 27.273339 73.291616
9475    1 2 0.0 69.863767 29.531068 74.362044
9476    1 2 0.0 71.991110 26.513207 75.765427
9477    1 2 0.0 74.571486 26.045488 76.140994
9478    1 2 0.0 71.216188 25.392002 78.728057
9479    1 2 0.0 73.426644 28.417691 75.498978
9480    1 2 0.0 72.273553 30.424636 73.490315
9481    1 1 0.0 70.949808 21.497696 87.126691
9482    1 1 0.0 73.857879 25.009273 81.952175
9483    1 1 0.0 70.576391 21.257485 84.117734
9484    1 1 0.0 73.296368 22.129541 82.254890
9485    1 2 0.0 70.877500 22.883662 86.419207
9486    1 2 0.0 73.683778 22.277537 80.390196
9487    1 2 0.0 70.302125 25.335969 81.460624
9488    1 2 0.0 71.729051 21.930539 82.864007
9489    1 2 0.0 74.147980 20.917680 83.239574
9490    1 2 0.0 70.730695 21.002698 85.826637
9491    1 2 0.0 73.541310 23.480874 82.597558
9492    1 2 0.0 72.847862 25.689171 80.588895
9493    1 1 0.0 69.631260 17.257325 94.225271
9494    1 1 0.0 73.227815 20.059617 89.050755
9495    1 1 0.0 69.214848 17.103239 91.216314
9496    1 1 0.0 72.058849 17.368581 89.353470
9497    1 2 0.0 69.859360 18.626303 93.517787
9498    1 2 0.0 72.469052 17.429603 87.488776
9499    1 2 0.0 69.826037 21.144985 88.559204
9500    1 2 0.0 70.485478 17.512051 89.962587
9501    1 2 0.0 72.629263 16.001659 90.338154
9502    1 2 0.0 69.310612 16.821185 92.925217
9503    1 2 0.0 72.589280 18.635366 89.696138
9504    1 2 0.0 72.388069 20.941219 87.687475
9505    1 1 0.0 67.429798 13.400788 101.323851
9506    1 1 0.0 71.545791 15.362079 96.149335
9507    1 1 0.0 66.989963 13.340070 98.314894
9508    1 1 0.0 69.824315 12.986226 96.452050
9509    1 2 0.0 67.947585 14.688431 100.616367
9510    1 2 0.0 70.238029 12.957405 94.587356
9511    1 2 0.0 68.457882 17.155103 95.657784
9512    1 2 0.0 68.318841 13.465423 97.061167
9513    1 2 0.0 70.086719 11.528490 97.436734
9514    1 2 0.0 67.022688 13.044004 100.023797
9515    1 2 0.0 70.615301 14.108919 96.794718
9516    1 2 0.0 70.915786 16.403947 94.786055
9517    1 1 0.0 64.448899 10.109351 108.422431
9518    1 1 0.0 68.890865 11.137455 103.247915
9519    1 1 0.0 64.006315 10.144855 105.413474
9520    1 1 0.0 66.697793 9.188457 103.550630
9521    1 2 0.0 65.232035 11.255138 107.714947
9522    1 2 0.0 67.095573 9.071148 101.685936
9523    1 2 0.0 66.261965 13.553858 102.756364
9524    1 2 0.0 65.330978 9.980858 104.159747
9525    1 2 0.0 66.639854 7.708426 104.535314
9526    1 2 0.0 63.974461 9.848695 107.122377
9527    1 2 0.0 67.712157 10.114289 103.893298
9528    1 2 0.0 68.500213 12.290619 101.884635
9529    1 1 0.0 60.828672 7.537723 115.521011
9530    1 1 0.0 65.387826 7.584316 110.346495
9531    1 1 0.0 60.404141 7.667780 112.512054
9532    1 1 0.0 62.826240 6.153781 110.649210
9533    1 2 0.0 61.840348 8.487798 114.813527
9534    1 2 0.0 63.189388 5.953498 108.784516
9535    1 2 0.0 63.341502 10.510521 109.854944
9536    1 2 0.0 61.662328 7.222140 111.258327
9537    1 2 0.0 62.450680 4.721020 111.633894
9538    1 2 0.0 60.309207 7.385445 114.220957
9539    1 2 0.0 64.016304 6.839235 110.991878
9540    1 2 0.0 65.254890 8.794574 108.983215
9541    1 1 0.0 56.739279 5.806777 122.619591
9542    1 1 0.0 61.201328 4.869668 117.445075
9543    1 1 0.0 56.352756 6.025274 119.610634
9544    1 1 0.0 58.391628 4.024836 117.747790
9545    1 2 0.0 57.931943 6.516483 121.912107
9546    1 2 0.0 58.703077 3.750993 115.883096
9547    1 2 0.0 59.833762 8.168135 116.953524
9548    1 2 0.0 57.485327 5.318938 118.356907
9549    1 2 0.0 57.716101 2.706689 118.732474
9550    1 2 0.0 56.199202 5.770034 121.319537
9551    1 2 0.0 59.701456 4.437694 118.090458
9552    1 2 0.0 61.332356 6.080134 116.081795
9553    1 1 0.0 52.372932 4.997871 129.718171
9554    1 1 0.0 56.528148 3.121109 124.543655
9555    1 1 0.0 52.042584 5.294538 126.709214
9556    1 1 0.0 53.602398 2.901688 124.846370
9557    1 2 0.0 53.690525 5.433851 129.010687
9558    1 2 0.0 53.847507 2.567156 122.981676
9559    1 2 0.0 55.903619 6.636799 124.052104
9560    1 2 0.0 52.996306 4.360706 125.455487
9561    1 2 0.0 52.658655 1.760111 125.831054
9562    1 2 0.0 51.837629 5.078392 128.418117
9563    1 2 0.0 54.970424 3.022544 125.189038
9564    1 2 0.0 56.916980 4.274887 123.180375
9565    1 1 0.0 47.934862 5.149027 136.816751
9566    1 1 0.0 51.587938 2.420824 131.642235
9567    1 1 0.0 47.676216 5.509920 133.807794
9568    1 1 0.0 48.683657 2.837128 131.944950
9569    1 2 0.0 49.315454 5.290789 136.109267
9570    1 2 0.0 48.850906 2.457632 130.080256
9571    1 2 0.0 51.735801 5.988492 131.150684
9572    1 2 0.0 48.406262 4.392485 132.554067
9573    1 2 0.0 47.516056 1.925780 132.929634
9574    1 2 0.0 47.429493 5.343026 135.516697
9575    1 2 0.0 50.045579 2.660302 132.287618
9576    1 2 0.0 52.216298 3.463685 130.278955
9577    1 1 0.0 43.633671 6.253141 143.915331
9578    1 1 0.0 46.612901 2.801730 138.740815
9579    1 1 0.0 43.458885 6.661297 140.906374
9580    1 1 0.0 43.866599 3.834192 139.043530
9581    1 2 0.0 45.012370 6.094021 143.207847
9582    1 2 0.0 43.948127 3.427568 137.178836
9583    1 2 0.0 47.526207 6.253684 138.249264
9584    1 2 0.0 43.930939 5.412780 139.652647
9585    1 2 0.0 42.530020 3.195907 140.028214
9586    1 2 0.0 43.181990 6.551500 142.615277
9587    1 2 0.0 45.158404 3.367995 139.386198
9588    1 2 0.0 47.451256 3.684655 137.377535
9589    1 1 0.0 39.671527 8.258315 151.013911
9590    1 1 0.0 41.836880 4.245922 145.839395
9591    1 1 0.0 39.588815 8.694549 148.004954
9592    1 1 0.0 39.377639 5.846013 146.142110
9593    1 2 0.0 40.983530 7.805792 150.306427
9594    1 2 0.0 39.369614 5.431374 144.277416
9595    1 2 0.0 43.472699 7.419911 145.347844
9596    1 2 0.0 39.780690 7.373636 146.751227
9597    1 2 0.0 37.934907 5.510793 147.126794
9598    1 2 0.0 39.294764 8.647010 149.713857
9599    1 2 0.0 40.538608 5.112358 146.484778
9600    1 2 0.0 42.845823 4.927412 144.476115
9601    1 1 0.0 36.234661 11.070301 158.112491
9602    1 1 0.0 37.484359 6.685520 152.937975
9603    1 1 0.0 36.247912 11.514110 155.103534
9604    1 1 0.0 35.427772 8.778031 153.240690
9605    1 2 0.0 37.418300 10.345645 157.405007
9606    1 2 0.0 35.330570 8.374867 151.375996
9607    1 2 0.0 39.765805 9.432358 152.446424
9608    1 2 0.0 36.150590 10.182886 153.849807
9609    1 2 0.0 33.946698 8.761633 154.225374
9610    1 2 0.0 35.950526 11.531062 156.812437
9611    1 2 0.0 36.403336 7.811402 153.583358
9612    1 2 0.0 38.616468 7.133543 151.574695
9613    1 1 0.0 33.484616 14.556928 165.211071
9614    1 1 0.0 33.759920 10.005855 160.036555
9615    1 1 0.0 33.593207 14.987450 162.202114
9616    1 1 0.0 32.202651 12.492434 160.339270
9617    1 2 0.0 34.484258 13.594200 164.503587
9618    1 2 0.0 32.020843 12.119693 158.474576
9619    1 2 0.0 36.579757 12.196433 159.545004
9620    1 2 0.0 33.211261 13.708487 160.948387
9621    1 2 0.0 30.752850 12.795627 161.323954
9622    1 2 0.0 33.306463 15.068098 163.911017
9623    1 2 0.0 32.946957 11.338263 160.681938
9624    1 2 0.0 34.961982 10.199353 158.673275
9625    1 1 0.0 31.550652 18.554314 172.309651
9626    1 1 0.0 30.838621 14.050864 167.135135
9627    1 1 0.0 31.749478 18.951315 169.300694
9628    1 1 0.0 29.853867 16.814632 167.437850
9629    1 2 0.0 32.319310 17.398765 171.602167
9630    1 2 0.0 29.595997 16.489835 165.573156
9631    1 2 0.0 34.064310 15.582218 166.643584
9632    1 2 0.0 31.100862 17.784727 168.046967
9633    1 2 0.0 28.503484 17.423167 168.422534
9634    1 2 0.0 31.486856 19.091867 171.009597
9635    1 2 0.0 30.331930 15.527171 167.780518
9636    1 2 0.0 32.054137 13.980740 165.771855
9637    1 1 0.0 30.523670 22.874571 179.408231
9638    1 1 0.0 28.857773 18.630418 174.233715
9639    1 1 0.0 30.803387 23.219390 176.399274
9640    1 1 0.0 28.491820 21.541471 174.536430
9641    1 2 0.0 31.025215 21.580515 178.700747
9642    1 2 0.0 28.170009 21.279885 172.671736
9643    1 2 0.0 32.337697 19.430570 173.742164
9644    1 2 0.0 29.918587 22.220011 175.145547
9645    1 2 0.0 27.304326 22.426744 175.521114
9646    1 2 0.0 30.577229 23.413241 178.108177
9647    1 2 0.0 28.681168 20.181234 174.879098
9648    1 2 0.0 30.029609 18.299970 172.870435
9649    1 1 0.0 30.451942 27.314635 186.506811
9650    1 1 0.0 27.910480 23.529266 181.332295
9651    1 1 0.0 30.799402 27.591064 183.497854
9652    1 1 0.0 28.180528 26.450777 181.635010
9653    1 2 0.0 30.662800 25.942896 185.799327
9654    1 2 0.0 27.809902 26.264696 179.770316
9655    1 2 0.0 31.481073 23.560607 180.840744
9656    1 2 0.0 29.720006 26.805868 182.244127
9657    1 2 0.0 27.211740 27.571178 182.619694
9658    1 2 0.0 30.620338 27.829102 185.206757
9659    1 2 0.0 28.072264 25.081698 181.977678
9660    1 2 0.0 28.983557 22.954025 179.969015
9661    1 1 0.0 31.338839 31.665811 193.605391
9662    1 1 0.0 28.041267 28.517148 188.430875
9663    1 1 0.0 31.737710 31.860857 190.596434
9664    1 1 0.0 28.934625 31.311798 188.733590
9665    1 2 0.0 31.249100 30.280864 192.897907
9666    1 2 0.0 28.532604 31.209969 186.868896
9667    1 2 0.0 31.534701 27.778205 187.939324
9668    1 2 0.0 30.514453 31.326750 189.342707
9669    1 2 0.0 28.230077 32.614665 189.718274
9670    1 2 0.0 31.614157 32.131893 192.305337
9671    1 2 0.0 28.533835 29.998228 189.076258
9672    1 2 0.0 28.965148 27.724153 187.067595
9673    1 1 0.0 33.142674 35.723580 200.703971
9674    1 1 0.0 29.243989 33.359620 195.529455
9675    1 1 0.0 33.574208 35.828077 197.695014
9676    1 1 0.0 30.718664 35.896052 195.832170
9677    1 2 0.0 32.756555 34.390523 199.996487
9678    1 2 0.0 30.304145 35.883262 193.967476
9679    1 2 0.0 32.496062 31.885126 195.037904
9680    1 2 0.0 32.264587 35.570162 196.441287
9681    1 2 0.0 30.311473 37.320147 196.816854
9682    1 2 0.0 33.511974 36.119371 199.403917
9683    1 2 0.0 30.044188 34.699732 196.174838
9684    1 2 0.0 29.975247 32.386144 194.166175
9685    1 1 0.0 35.778663 39.297216 2.480675
9686    1 1 0.0 31.462112 37.829072 202.628035
9687    1 1 0.0 36.222577 39.306251 204.793594
9688    1 1 0.0 33.448792 39.988067 202.930750
9689    1 2 0.0 35.114312 38.078706 1.773191
9690    1 2 0.0 33.041258 40.064916 201.066056
9691    1 2 0.0 34.319969 35.688332 202.136484
9692    1 2 0.0 34.888146 39.336653 203.539867
9693    1 2 0.0 33.358097 41.466453 203.915434
9694    1 2 0.0 36.224586 39.604113 1.180621
9695    1 2 0.0 32.532332 38.965228 203.273418
9696    1 2 0.0 31.966378 36.720870 201.264755
9697    1 1 0.0 39.122905 42.218750 9.579255
9698    1 1 0.0 34.591380 41.715428 4.404739
9699    1 1 0.0 39.558334 42.131898 6.570298
9700    1 1 0.0 36.996685 43.395507 4.707454
9701    1 2 0.0 38.211550 41.172059 8.871771
9702    1 2 0.0 36.615291 43.558383 2.842760
9703    1 2 0.0 36.920692 39.009062 3.913188
9704    1 2 0.0 38.261817 42.449186 5.316571
9705    1 2 0.0 37.226748 44.858695 5.692138
9706    1 2 0.0 39.624492 42.422327 8.279201
9707    1 2 0.0 35.881316 42.594225 5.050122
9708    1 2 0.0 34.844950 40.524589 3.041459
9709    1 1 0.0 43.018213 44.350859 16.677835
9710    1 1 0.0 38.484707 44.836017 11.503319
9711    1 1 0.0 43.424690 44.172203 13.668878
9712    1 1 0.0 41.195581 45.958211 11.806034
9713    1 2 0.0 41.902689 43.525185 15.970351
9714    1 2 0.0 40.858254 46.199459 9.941340
9715    1 2 0.0 40.175991 41.691232 11.011768
9716    1 2 0.0 42.227026 44.761465 12.415151
9717    1 2 0.0 41.735589 47.337429 12.790718
9718    1 2 0.0 43.551888 44.441548 15.377781
9719    1 2 0.0 39.933730 45.416149 12.148702
9720    1 2 0.0 38.475664 43.618514 10.140039
9721    1 1 0.0 47.281496 45.593329 23.776415
9722    1 1 0.0 42.959097 47.044164 18.601899
9723    1 1 0.0 47.639915 45.331267 20.767458
9724    1 1 0.0 45.848121 47.555727 18.904614
9725    1 2 0.0 46.014236 45.027482 23.068931
9726    1 2 0.0 45.570716 47.864007 17.039920
9727    1 2 0.0 43.932858 43.608774 18.110348
9728    1 2 0.0 46.597398 46.164805 19.513731
9729    1 2 0.0 46.672692 48.786146 19.889298
9730    1 2 0.0 47.822174 45.566867 22.476361
9731    1 2 0.0 44.499098 47.298363 19.247282
9732    1 2 0.0 42.687866 45.857223 17.238619
9733    1 1 0.0 51.712367 45.887761 30.874995
9734    1 1 0.0 47.804240 48.236079 25.700479
9735    1 1 0.0 52.005883 45.554609 27.866038
9736    1 1 0.0 50.735622 48.112966 26.003194
9737    1 2 0.0 50.352937 45.608337 30.167511
9738    1 2 0.0 50.531178 48.473788 24.138500
9739    1 2 0.0 48.014708 44.671556 25.208928
9740    1 2 0.0 51.167514 46.593245 26.612311
9741    1 2 0.0 51.806000 49.136754 26.987878
9742    1 2 0.0 52.234636 45.745392 29.574941
9743    1 2 0.0 49.362835 48.152397 26.345862
9744    1 2 0.0 47.283570 47.135489 24.337199
9745    1 1 0.0 55.665180 60.871965 40.302097
9746    1 1 0.0 50.046227 63.707812 34.889963
9747    1 1 0.0 55.303637 60.408719 37.055522
9748    1 1 0.0 53.464956 63.143461 35.430296
9749    1 2 0.0 53.579739 60.865124 39.691388
9750    1 2 0.0 52.643555 63.458045 33.662377
9751    1 2 0.0 48.958576 60.150867 34.694236
9752    1 2 0.0 53.945939 61.579208 35.943400
9753    1 2 0.0 55.240326 64.000017 36.473186
9754    1 2 0.0 56.021106 60.599630 38.885541
9755    1 2 0.0 52.004019 63.413594 35.656462
9756    1 2 0.0 48.579127 62.638199 33.668288
9757    1 1 0.0 63.191933 59.000445 47.400677
9758    1 1 0.0 58.316224 62.980662 41.988543
9759    1 1 0.0 62.739045 58.626006 44.154102
9760    1 1 0.0 61.532978 61.692757 42.528876
9761    1 2 0.0 61.154028 59.443226 46.789968
9762    1 2 0.0 60.798682 62.176979 40.760957
9763    1 2 0.0 56.487529 59.741726 41.792816
9764    1 2 0.0 61.665524 60.061603 43.041980
9765    1 2 0.0 63.451233 62.146549 43.571766
9766    1 2 0.0 63.480799 58.657799 45.984121
9767    1 2 0.0 60.164595 62.271408 42.755042
9768    1 2 0.0 56.653077 62.252382 40.766868
9769    1 1 0.0 70.138438 55.550713 54.499257
9770    1 1 0.0 66.235148 60.488221 49.087123
9771    1 1 0.0 69.615494 55.282683 51.252682
9772    1 1 0.0 69.098729 58.537297 49.627456
9773    1 2 0.0 68.243857 56.422306 53.888548
9774    1 2 0.0 68.486051 59.168397 47.859537
9775    1 2 0.0 63.751362 57.719532 48.891396
9776    1 2 0.0 68.876607 56.915910 50.140560
9777    1 2 0.0 71.069705 58.566994 50.670346
9778    1 2 0.0 70.346668 55.153862 53.082701
9779    1 2 0.0 67.887218 59.397268 49.853622
9780    1 2 0.0 64.454125 60.135504 47.865448
9781    1 1 0.0 76.178193 50.684918 61.597837
9782    1 1 0.0 73.430785 56.347640 56.185703
9783    1 1 0.0 75.609771 50.535894 58.351262
9784    1 1 0.0 75.806597 53.825395 56.726036
9785    1 2 0.0 74.515986 51.944354 60.987128
9786    1 2 0.0 75.344336 54.573710 54.958117
9787    1 2 0.0 70.408653 54.179333 55.989976
9788    1 2 0.0 75.240249 52.289986 57.239140
9789    1 2 0.0 77.737654 53.429602 57.768926
9790    1 2 0.0 76.295998 50.252515 60.181281
9791    1 2 0.0 74.808903 54.926265 56.952202
9792    1 2 0.0 71.615600 56.387065 54.964028
9793    1 1 0.0 81.027310 44.631766 68.696417
9794    1 1 0.0 79.564921 50.753537 63.284283
9795    1 1 0.0 80.440129 44.608752 65.449842
9796    1 1 0.0 81.341295 47.778524 63.824616
9797    1 2 0.0 79.675606 46.219848 68.085708
9798    1 2 0.0 81.051177 48.608882 62.056697
9799    1 2 0.0 76.146492 49.287530 63.088556
9800    1 2 0.0 80.457339 46.401261 64.337720
9801    1 2 0.0 83.141666 46.975845 64.867506
9802    1 2 0.0 81.049153 44.184135 67.279861
9803    1 2 0.0 80.604311 49.068549 64.050782
9804    1 2 0.0 77.800892 51.183251 62.062608
9805    1 1 0.0 84.457868 37.675771 75.794997
9806    1 1 0.0 84.349234 43.968851 70.382863
9807    1 1 0.0 83.879526 37.779849 72.548422
9808    1 1 0.0 85.442675 40.680905 70.923196
9809    1 2 0.0 83.480200 39.517856 75.184288
9810    1 2 0.0 85.338337 41.554275 69.155277
9811    1 2 0.0 80.695184 43.274050 70.187136
9812    1 2 0.0 84.282660 39.526523 71.436300
9813    1 2 0.0 87.027738 39.509067 71.966086
9814    1 2 0.0 84.382723 37.233952 74.378441
9815    1 2 0.0 85.001043 42.099450 71.149362
9816    1 2 0.0 82.719276 44.768657 69.161188
9817    1 1 0.0 86.308620 30.143885 82.893577
9818    1 1 0.0 87.558849 36.312482 77.481443
9819    1 1 0.0 85.766302 30.370164 79.647002
9820    1 1 0.0 87.917961 32.866145 78.021776
9821    1 2 0.0 85.750942 32.153389 82.282868
9822    1 2 0.0 88.004307 33.741477 76.253857
9823    1 2 0.0 83.840927 36.421545 77.285716
9824    1 2 0.0 86.536412 31.988903 78.534880
9825    1 2 0.0 89.213214 31.380228 79.064666
9826    1 2 0.0 86.140019 29.728645 81.477021
9827    1 2 0.0 87.792438 34.346534 78.247942
9828    1 2 0.0 86.139574 37.444786 76.259768
9829    1 1 0.0 86.492578 22.390128 89.992157
9830    1 1 0.0 89.042903 28.144300 84.580023
9831    1 1 0.0 86.011773 22.727971 86.745582
9832    1 1 0.0 88.650808 24.701559 85.120356
9833    1 2 0.0 86.381102 24.472598 89.381448
9834    1 2 0.0 88.923780 25.537711 83.352437
9835    1 2 0.0 85.435863 29.052100 84.384296
9836    1 2 0.0 87.112661 24.142691 85.633460
9837    1 2 0.0 89.595371 22.971406 86.163246
9838    1 2 0.0 86.238445 22.020984 88.575601
9839    1 2 0.0 88.847294 26.174211 85.346522
9840    1 2 0.0 87.901022 29.555881 83.358348
9841    1 1 0.0 85.001093 14.778947 97.090737
9842    1 1 0.0 88.731643 19.848233 91.678603
9843    1 1 0.0 84.604401 15.212476 93.844162
9844    1 1 0.0 87.606770 16.570907 92.218936
9845    1 2 0.0 85.341058 16.836503 96.480028
9846    1 2 0.0 88.053537 17.328576 90.451017
9847    1 2 0.0 85.405026 21.512101 91.482876
9848    1 2 0.0 85.984322 16.356680 92.732040
9849    1 2 0.0 88.156245 14.677839 93.261826
9850    1 2 0.0 84.673373 14.473251 95.674181
9851    1 2 0.0 88.116030 17.966602 92.445102
9852    1 2 0.0 87.920826 21.472742 90.456928
9853    1 1 0.0 81.904269 7.668091 104.189317
9854    1 1 0.0 86.639698 11.814219 98.777183
9855    1 1 0.0 81.610336 8.176927 100.942742
9856    1 1 0.0 84.834920 8.856352 99.317516
9857    1 2 0.0 82.679698 9.604020 103.578608
9858    1 2 0.0 85.434482 9.499925 97.549597
9859    1 2 0.0 83.749864 14.155949 98.581456
9860    1 2 0.0 83.204431 8.996836 99.830620
9861    1 2 0.0 84.963480 6.889349 100.360406
9862    1 2 0.0 81.518367 7.440211 102.772761
9863    1 2 0.0 85.633016 10.109488 99.543682
9864    1 2 0.0 86.198057 13.575300 97.555508
9865    1 1 0.0 77.347668 1.391789 111.287897
9866    1 1 0.0 82.865396 4.419880 105.875763
9867    1 1 0.0 77.170308 1.952016 108.041322
9868    1 1 0.0 80.465542 1.920499 106.416096
9869    1 2 0.0 78.522111 3.115098 110.677188
9870    1 2 0.0 81.189719 2.419728 104.648177
9871    1 2 0.0 80.548176 7.329404 105.680036
9872    1 2 0.0 78.903649 2.409090 106.929200
9873    1 2 0.0 80.167145 -0.027984 107.458986
9874    1 2 0.0 76.921721 1.252435 109.871341
9875    1 2 0.0 81.514963 2.972176 106.642262
9876    1 2 0.0 82.813689 6.234757 104.654088
9877    1 1 0.0 71.545460 -3.754956 118.386477
9878    1 1 0.0 77.586139 -1.987230 112.974343
9879    1 1 0.0 71.493011 -3.169669 115.139902
9880    1 1 0.0 74.704010 -3.910647 113.514676
9881    1 2 0.0 73.063716 -2.325267 117.775768
9882    1 2 0.0 75.518763 -3.579228 111.746757
9883    1 2 0.0 75.950449 1.353331 112.778616
9884    1 2 0.0 73.284126 -3.096913 114.027780
9885    1 2 0.0 73.992681 -5.749027 114.557566
9886    1 2 0.0 71.099489 -3.799233 116.969921
9887    1 2 0.0 75.955429 -3.109861 113.740842
9888    1 2 0.0 77.926797 -0.203861 111.752668
9889    1 1 0.0 64.770367 -7.530231 125.485057
9890    1 1 0.0 71.050068 -7.105959 120.072923
9891    1 1 0.0 64.845294 -6.947395 122.238482
9892    1 1 0.0 67.821131 -8.363005 120.613256
9893    1 2 0.0 66.561073 -6.461362 124.874348
9894    1 2 0.0 68.688165 -8.214974 118.845337
9895    1 2 0.0 70.172789 -3.491375 119.877196
9896    1 2 0.0 66.609996 -7.262377 121.126360
9897    1 2 0.0 66.730305 -10.004872 121.656146
9898    1 2 0.0 64.325334 -7.477350 124.068501
9899    1 2 0.0 69.215728 -7.850749 120.839422
9900    1 2 0.0 71.767078 -5.437922 118.851248
9901    1 1 0.0 57.340836 -9.756588 132.583637
9902    1 1 0.0 63.564397 -10.695713 127.171503
9903    1 1 0.0 57.539617 -9.203599 129.337062
9904    1 1 0.0 60.140420 -11.227303 127.711836
9905    1 2 0.0 59.319825 -9.098779 131.972928
9906    1 2 0.0 61.018982 -11.269618 125.943917
9907    1 2 0.0 63.486764 -6.977002 126.975776
9908    1 2 0.0 59.194960 -9.891513 128.224940
9909    1 2 0.0 58.721369 -12.595485 128.754726
9910    1 2 0.0 56.917659 -9.609035 131.167081
9911    1 2 0.0 61.612646 -11.027655 127.938002
9912    1 2 0.0 64.624058 -9.221409 125.949828
9913    1 1 0.0 49.606077 -10.329382 139.682217
9914    1 1 0.0 55.480971 -12.587761 134.270083
9915    1 1 0.0 49.919369 -9.832231 136.435642
9916    1 1 0.0 52.022893 -12.368911 134.810416
9917    1 2 0.0 51.680331 -10.113552 139.071508
9918    1 2 0.0 52.871688 -12.599582 133.042497
9919    1 2 0.0 56.206633 -8.939714 134.074356
9920    1 2 0.0 51.387547 -10.860744 135.323520
9921    1 2 0.0 50.342315 -13.399099 135.853306
9922    1 2 0.0 49.224647 -10.094092 138.265661
9923    1 2 0.0 53.503548 -12.491254 135.036582
9924    1 2 0.0 56.833476 -11.376488 133.048408
9925    1 1 0.0 41.929645 -9.221691 146.780797
9926    1 1 0.0 47.179737 -12.693174 141.368663
9927    1 1 0.0 42.342721 -8.803745 143.534222
9928    1 1 0.0 43.850095 -11.734169 141.908996
9929    1 2 0.0 44.001667 -9.457984 146.170088
9930    1 2 0.0 44.629227 -12.142354 140.141077
9931    1 2 0.0 48.674585 -9.287258 141.172936
9932    1 2 0.0 43.554727 -10.124514 142.422100
9933    1 2 0.0 41.986984 -12.377942 142.951886
9934    1 2 0.0 41.607889 -8.909723 145.364241
9935    1 2 0.0 45.269585 -12.172753 142.135162
9936    1 2 0.0 48.761514 -11.801864 140.146988
9937    1 1 0.0 34.672353 -6.485578 153.879377
9938    1 1 0.0 39.050874 -11.006996 148.467243
9939    1 1 0.0 35.165799 -6.166483 150.632802
9940    1 1 0.0 36.006172 -9.352912 149.007576
9941    1 2 0.0 36.644753 -7.162888 153.268668
9942    1 2 0.0 36.679019 -9.919426 147.239657
9943    1 2 0.0 41.244647 -8.003300 148.271516
9944    1 2 0.0 36.064664 -7.717428 149.520680
9945    1 2 0.0 34.048097 -9.580011 150.050466
9946    1 2 0.0 34.425396 -6.111596 152.462821
9947    1 2 0.0 37.297776 -10.087123 149.233742
9948    1 2 0.0 40.787575 -10.477544 147.245568
9949    1 1 0.0 28.175316 -2.249649 160.977957
9950    1 1 0.0 31.476461 -7.608483 155.565823
9951    1 1 0.0 28.725938 -2.044402 157.731382
9952    1 1 0.0 28.859809 -5.337067 156.106156
9953    1 2 0.0 29.955385 -3.336141 160.367248
9954    1 2 0.0 29.394746 -6.035281 154.338237
9955    1 2 0.0 34.266046 -5.148188 155.370096
9956    1 2 0.0 29.269412 -3.752624 156.619260
9957    1 2 0.0 26.898807 -5.136817 157.149046
9958    1 2 0.0 28.014764 -1.831231 159.561401
9959    1 2 0.0 29.962819 -6.332394 156.332322
9960    1 2 0.0 33.286458 -7.465774 154.344148
9961    1 1 0.0 22.743911 3.286995 168.076537
9962    1 1 0.0 24.812519 -2.657374 162.664403
9963    1 1 0.0 23.325828 3.368746 164.829962
9964    1 1 0.0 22.746906 0.124612 163.204736
9965    1 2 0.0 24.247981 1.842391 167.465828
9966    1 2 0.0 23.118790 -0.672485 161.436817
9967    1 2 0.0 28.066797 -0.856121 162.468676
9968    1 2 0.0 23.488367 1.583538 163.717840
9969    1 2 0.0 20.875149 0.742798 164.247626
9970    1 2 0.0 22.677311 3.730182 166.659981
9971    1 2 0.0 23.609477 -1.085049 163.430902
9972    1 2 0.0 26.610735 -2.908116 161.442728
9973    1 1 0.0 18.633430 9.864118 175.175117
9974    1 1 0.0 19.372270 3.613616 169.762983
9975    1 1 0.0 19.219291 9.818531 171.928542
9976    1 1 0.0 17.954786 6.775409 170.303316
9977    1 2 0.0 19.790806 8.129300 174.564408
9978    1 2 0.0 18.146137 5.916895 168.535397
9979    1 2 0.0 22.938281 4.671162 169.567256
9980    1 2 0.0 18.993255 8.040246 170.816420
9981    1 2 0.0 16.260252 7.782476 171.346206
9982    1 2 0.0 18.663913 10.311243 173.758561
9983    1 2 0.0 18.536375 5.408273 170.529482
9984    1 2 0.0 21.074185 2.981208 168.541308
9985    1 1 0.0 16.037077 17.172575 182.273697
9986    1 1 0.0 15.411422 10.909731 176.861563
9987    1 1 0.0 16.599344 17.001792 179.027122
9988    1 1 0.0 14.708692 14.302719 177.401896
9989    1 2 0.0 16.793359 15.229086 181.662988
9990    1 2 0.0 14.710516 13.423141 175.633977
9991    1 2 0.0 19.121553 11.173864 176.665836
9992    1 2 0.0 15.995359 15.314016 177.915000
9993    1 2 0.0 13.271029 15.651331 178.444786
9994    1 2 0.0 16.163210 17.602622 180.857141
9995    1 2 0.0 14.981963 12.842366 177.628062
9996    1 2 0.0 16.937041 9.925382 175.639888
9997    1 1 0.0 15.076889 24.868849 189.372277
9998    1 1 0.0 13.116146 18.888033 183.960143
9999    1 1 0.0 15.589134 24.580898 186.125702
10000   1 1 0.0 13.161201 22.352737 184.500476
10001   1 2 0.0 15.396529 22.808038 188.761568
10002   1 2 0.0 12.973411 21.493437 182.732557
10003   1 2 0.0 16.796010 18.346338 183.764416
10004   1 2 0.0 14.635587 23.062960 185.013580
10005   1 2 0.0 12.047982 23.979505 185.543366
10006   1 2 0.0 15.292743 25.261605 187.955721
10007   1 2 0.0 13.113308 20.867808 184.726642
10008   1 2 0.0 14.393760 17.598012 182.738468
10009   1 1 0.0 15.797996 32.591193 196.470857
10010   1 1 0.0 12.594326 27.173522 191.058723
10011   1 1 0.0 16.236143 32.199608 193.224282
10012   1 1 0.0 13.385048 30.547090 191.599056
10013   1 2 0.0 15.665971 30.509924 195.860148
10014   1 2 0.0 13.016472 29.748457 189.831137
10015   1 2 0.0 16.070960 25.851458 190.862996
10016   1 2 0.0 14.977854 30.922856 192.112160
10017   1 2 0.0 12.648598 32.375551 192.641946
10018   1 2 0.0 16.093426 32.928197 195.054301
10019   1 2 0.0 13.018243 29.107381 191.825222
10020   1 2 0.0 13.563883 25.638461 189.837048
10021   1 1 0.0 18.166505 39.976635 203.569437
10022   1 1 0.0 13.870488 35.376754 198.157303
10023   1 1 0.0 18.509958 39.499822 200.322862
10024   1 1 0.0 15.369711 38.500619 198.697636
10025   1 2 0.0 17.589019 37.972733 202.958728
10026   1 2 0.0 14.837673 37.800192 196.929717
10027   1 2 0.0 16.980481 33.336464 197.961576
10028   1 2 0.0 17.006071 38.524267 199.210740
10029   1 2 0.0 15.044646 40.444831 199.740526
10030   1 2 0.0 18.527624 40.242047 202.152881
10031   1 2 0.0 14.701236 37.173800 198.923802
10032   1 2 0.0 14.486418 33.668807 196.935628
10033   1 1 0.0 22.071088 46.678039 5.346141
10034   1 1 0.0 16.884651 43.112155 205.255883
10035   1 1 0.0 22.303706 46.138409 2.099566
10036   1 1 0.0 19.021907 45.839487 0.474340
10037   1 2 0.0 21.075286 44.845694 4.735432
10038   1 2 0.0 18.351414 45.270188 204.028297
10039   1 2 0.0 19.481823 40.449538 205.060156
10040   1 2 0.0 20.624906 45.509904 0.987444
10041   1 2 0.0 19.123505 47.808067 1.517230
10042   1 2 0.0 22.480923 46.859384 3.929585
10043   1 2 0.0 18.083180 44.687923 0.700506
10044   1 2 0.0 17.118002 41.311600 204.034208
10045   1 1 0.0 27.328221 52.380420 12.444721
10046   1 1 0.0 21.495139 50.016140 7.032587
10047   1 1 0.0 27.439068 51.803338 9.198146
10048   1 1 0.0 24.169972 52.218747 7.572920
10049   1 2 0.0 25.960907 50.805757 11.834012
10050   1 2 0.0 23.392539 51.807334 5.805001
10051   1 2 0.0 23.457416 46.856346 6.836860
10052   1 2 0.0 25.664265 51.551425 8.086024
10053   1 2 0.0 24.693458 54.119165 8.615810
10054   1 2 0.0 27.767508 52.469174 11.028165
10055   1 2 0.0 23.005117 51.296563 7.799086
10056   1 2 0.0 21.334944 48.207608 5.810912
10057   1 1 0.0 33.690802 56.815751 19.543301
10058   1 1 0.0 27.485247 55.764202 14.131167
10059   1 1 0.0 33.674669 56.228340 16.296726
10060   1 1 0.0 30.571931 57.338554 14.671500
10061   1 2 0.0 32.016245 55.572782 18.932592
10062   1 2 0.0 29.724100 57.104366 12.903581
10063   1 2 0.0 28.720397 52.255750 13.935440
10064   1 2 0.0 31.887283 56.364860 15.184604
10065   1 2 0.0 31.492700 59.081487 15.714390
10066   1 2 0.0 34.138893 56.807742 18.126745
10067   1 2 0.0 29.235700 56.689097 14.897666
10068   1 2 0.0 26.939035 54.032699 12.909492
10069   1 1 0.0 40.859772 59.775557 26.641881
10070   1 1 0.0 34.573423 60.086166 21.229747
10071   1 1 0.0 40.717418 59.205429 23.395306
10072   1 1 0.0 37.926876 60.958265 21.770080
10073   1 2 0.0 38.956680 58.922707 26.031172
10074   1 2 0.0 37.048497 60.912308 20.002161
10075   1 2 0.0 35.023391 56.393963 21.034020
10076   1 2 0.0 39.001461 59.723964 22.283184
10077   1 2 0.0 39.201649 62.461788 22.812970
10078   1 2 0.0 41.295607 59.671162 25.225325
10079   1 2 0.0 36.482075 60.612061 21.996246
10080   1 2 0.0 33.666868 58.513077 20.008072
10081   1 1 0.0 48.498170 61.120721 33.740461
10082   1 1 0.0 42.426503 62.778887 28.328327
10083   1 1 0.0 48.236286 60.594672 30.493886
10084   1 1 0.0 45.889103 62.907742 28.868660
10085   1 2 0.0 46.455995 60.698075 33.129752
10086   1 2 0.0 45.021462 63.052176 27.100741
10087   1 2 0.0 42.070138 59.076477 28.132600
10088   1 2 0.0 46.672413 61.470850 29.381764
10089   1 2 0.0 47.457962 64.101186 29.911550
10090   1 2 0.0 48.901263 60.924846 32.323905
10091   1 2 0.0 44.403641 62.881063 29.094826
10092   1 2 0.0 41.202215 61.438152 27.106652
10093   1 1 0.0 54.346972 55.964875 40.581140
10094   1 1 0.0 49.223355 58.667507 35.452877
10095   1 1 0.0 54.482351 55.391286 37.126943
10096   1 1 0.0 52.784789 58.102279 35.620389
10097   1 2 0.0 52.391121 55.929785 40.023347
10098   1 2 0.0 52.295589 58.384989 33.726642
10099   1 2 0.0 48.603686 55.087991 34.913765
10100   1 2 0.0 53.262637 56.540676 36.062056
10101   1 2 0.0 54.368178 58.987644 36.664608
10102   1 2 0.0 54.921417 55.636815 39.038216
10103   1 2 0.0 51.174576 58.386665 36.054635
10104   1 2 0.0 48.103682 57.568156 34.092149
10105   1 1 0.0 60.847109 54.492783 47.679720
10106   1 1 0.0 56.426387 58.236160 42.551457
10107   1 1 0.0 60.855685 53.903497 44.225523
10108   1 1 0.0 59.782302 56.916642 42.718969
10109   1 2 0.0 58.929662 54.880050 47.121927
10110   1 2 0.0 59.365529 57.298143 40.825222
10111   1 2 0.0 55.049810 54.874321 42.012345
10112   1 2 0.0 59.912357 55.288751 43.160636
10113   1 2 0.0 61.519295 57.439942 43.763188
10114   1 2 0.0 61.337350 54.048626 46.136796
10115   1 2 0.0 58.271223 57.541384 43.153215
10116   1 2 0.0 55.096090 57.403962 41.190729
10117   1 1 0.0 66.877214 51.654353 54.778300
10118   1 1 0.0 63.367171 56.262526 49.650037
10119   1 1 0.0 66.758582 51.077068 51.324103
10120   1 1 0.0 66.359830 54.250740 49.817549
10121   1 2 0.0 65.088294 52.445774 54.220507
10122   1 2 0.0 66.035074 54.713099 47.923802
10123   1 2 0.0 61.298389 53.276380 49.110925
10124   1 2 0.0 66.135979 52.633076 50.259216
10125   1 2 0.0 68.168785 54.387378 50.861768
10126   1 2 0.0 67.260206 51.114976 53.235376
10127   1 2 0.0 65.018911 55.186473 50.251795
10128   1 2 0.0 61.888780 55.736597 48.289309
10129   1 1 0.0 72.153853 47.582999 61.876880
10130   1 1 0.0 69.719472 52.839372 56.748617
10131   1 1 0.0 71.913591 47.044849 58.422683
10132   1 1 0.0 72.208211 50.229876 56.916129
10133   1 2 0.0 70.577546 48.741376 61.319087
10134   1 2 0.0 71.990738 50.751361 55.022382
10135   1 2 0.0 67.055724 50.369276 56.209505
10136   1 2 0.0 71.640977 48.698475 57.357796
10137   1 2 0.0 74.004103 49.973430 57.960348
10138   1 2 0.0 72.411596 46.973755 60.333956
10139   1 2 0.0 71.100478 51.432618 57.350375
10140   1 2 0.0 68.162475 52.644431 55.387889
10141   1 1 0.0 76.429010 42.470087 68.975460
10142   1 1 0.0 75.184714 48.127594 63.847197
10143   1 1 0.0 76.078411 41.996366 65.521263
10144   1 1 0.0 77.052556 45.043043 64.014709
10145   1 2 0.0 75.139406 43.940972 68.417667
10146   1 2 0.0 76.952586 45.599143 62.120962
10147   1 2 0.0 72.051204 46.289650 63.308085
10148   1 2 0.0 76.168599 43.669885 64.456376
10149   1 2 0.0 78.750971 44.405566 65.058928
10150   1 2 0.0 76.549390 41.819611 67.432536
10151   1 2 0.0 76.230076 46.456261 64.448955
10152   1 2 0.0 73.622295 48.272804 62.486469
10153   1 1 0.0 79.501742 36.555937 76.074040
10154   1 1 0.0 79.506015 42.348661 70.945777
10155   1 1 0.0 79.057284 36.168912 72.619843
10156   1 1 0.0 80.665166 38.934036 71.113289
10157   1 2 0.0 78.559456 38.270195 75.516247
10158   1 2 0.0 80.687398 39.498614 69.219542
10159   1 2 0.0 76.050026 41.229257 70.406665
10160   1 2 0.0 79.506035 37.783663 71.554956
10161   1 2 0.0 82.186275 37.945493 72.157508
10162   1 2 0.0 79.479099 35.894804 74.531116
10163   1 2 0.0 80.166598 40.491306 71.547535
10164   1 2 0.0 78.011611 42.827197 69.585049
10165   1 1 0.0 81.227620 30.118532 83.172620
10166   1 1 0.0 82.480262 35.774197 78.044357
10167   1 1 0.0 80.710194 29.836394 79.718423
10168   1 1 0.0 82.876239 32.189996 78.211869
10169   1 2 0.0 80.676942 31.995587 82.614827
10170   1 2 0.0 83.019628 32.736514 76.318122
10171   1 2 0.0 78.864236 35.425949 77.505245
10172   1 2 0.0 81.496416 31.316479 78.653536
10173   1 2 0.0 84.148545 30.896850 79.256088
10174   1 2 0.0 81.063019 29.477816 81.629696
10175   1 2 0.0 82.725016 33.818122 78.646115
10176   1 2 0.0 81.124115 36.563566 76.683629
10177   1 1 0.0 81.525523 23.460447 90.271200
10178   1 1 0.0 83.967657 28.713222 85.142937
10179   1 1 0.0 80.959451 23.296457 86.817003
10180   1 1 0.0 83.581848 25.127912 85.310449
10181   1 2 0.0 81.392337 25.412073 89.713407
10182   1 2 0.0 83.839655 25.630682 83.416702
10183   1 2 0.0 80.361556 29.152497 84.603825
10184   1 2 0.0 82.046189 24.572308 85.752116
10185   1 2 0.0 84.545549 23.590945 86.354668
10186   1 2 0.0 81.226701 22.870264 88.728276
10187   1 2 0.0 83.785078 26.750367 85.744695
10188   1 2 0.0 82.813509 29.776322 83.782209
10189   1 1 0.0 80.381450 16.894631 97.369780
10190   1 1 0.0 83.898289 21.497620 92.241517
10191   1 1 0.0 79.793337 16.856497 93.915583
10192   1 1 0.0 82.748827 18.079722 92.409029
10193   1 2 0.0 80.672016 18.829095 96.811987
10194   1 2 0.0 83.108934 18.515112 90.515282
10195   1 2 0.0 80.471610 22.703773 91.702405
10196   1 2 0.0 81.129512 17.868146 92.850696
10197   1 2 0.0 83.358626 16.371175 93.453248
10198   1 2 0.0 79.962453 16.382721 95.826856
10199   1 2 0.0 83.296959 19.620245 92.843275
10200   1 2 0.0 83.000387 22.784483 90.880789
10201   1 1 0.0 77.849175 10.729696 104.468360
10202   1 1 0.0 82.275416 14.466546 99.340097
10203   1 1 0.0 77.266665 10.819210 101.014163
10204   1 1 0.0 80.416330 11.376710 99.507609
10205   1 2 0.0 78.549835 12.556074 103.910567
10206   1 2 0.0 80.861811 11.724256 97.613862
10207   1 2 0.0 79.189224 16.382883 98.800985
10208   1 2 0.0 78.789472 11.519107 99.949276
10209   1 2 0.0 80.643566 9.576889 100.551828
10210   1 2 0.0 77.329696 10.320120 102.925436
10211   1 2 0.0 81.283600 12.762893 99.941855
10212   1 2 0.0 81.675967 15.916684 97.979369
10213   1 1 0.0 74.047722 5.255411 111.566940
10214   1 1 0.0 79.175321 7.950480 106.438677
10215   1 1 0.0 73.498194 5.468366 108.112743
10216   1 1 0.0 76.693992 5.333936 106.606189
10217   1 2 0.0 75.125544 6.887857 111.009147
10218   1 2 0.0 77.203908 5.577303 104.712442
10219   1 2 0.0 76.574674 10.486927 105.899565
10220   1 2 0.0 75.136058 5.823613 107.047856
10221   1 2 0.0 76.527984 3.527439 107.650408
10222   1 2 0.0 73.452178 4.967421 110.024016
10223   1 2 0.0 77.839635 6.500625 107.040435
10224   1 2 0.0 78.902498 9.495733 105.077949
10225   1 1 0.0 69.155770 0.729082 118.665520
10226   1 1 0.0 74.743714 2.255694 113.537257
10227   1 1 0.0 68.665054 1.055470 115.211323
10228   1 1 0.0 71.756773 0.235428 113.704769
10229   1 2 0.0 70.560092 2.090868 118.107727
10230   1 2 0.0 72.307157 0.363176 111.811022
10231   1 2 0.0 72.750852 5.293033 112.998145
10232   1 2 0.0 70.340990 1.049369 114.146436
10233   1 2 0.0 71.205323 -1.492835 114.748988
10234   1 2 0.0 68.512154 0.576215 117.122596
10235   1 2 0.0 73.126941 1.127785 114.139015
10236   1 2 0.0 74.810342 3.823432 112.176529
10237   1 1 0.0 63.403255 -2.636539 125.764100
10238   1 1 0.0 69.188895 -2.350139 120.635837
10239   1 1 0.0 62.994415 -2.212061 122.309903
10240   1 1 0.0 65.836736 -3.679170 120.803349
10241   1 2 0.0 65.068070 -1.609422 125.206307
10242   1 2 0.0 66.401718 -3.673044 118.909602
10243   1 2 0.0 67.897486 1.045327 120.096725
10244   1 2 0.0 64.629649 -2.579222 121.245016
10245   1 2 0.0 64.925764 -5.247965 121.847568
10246   1 2 0.0 62.741818 -2.647099 124.221176
10247   1 2 0.0 67.367027 -3.103088 121.237595
10248   1 2 0.0 69.591842 -0.833606 119.275109
10249   1 1 0.0 57.060560 -4.683260 132.862680
10250   1 1 0.0 62.771956 -5.650534 127.734417
10251   1 1 0.0 56.752814 -4.180643 129.408483
10252   1 1 0.0 59.212139 -6.225860 127.901929
10253   1 2 0.0 58.907618 -4.039089 132.304887
10254   1 2 0.0 59.765164 -6.341646 126.008182
10255   1 2 0.0 62.242700 -2.056537 127.195305
10256   1 2 0.0 58.270486 -4.891607 128.343596
10257   1 2 0.0 57.984464 -7.561451 128.946148
10258   1 2 0.0 56.412391 -4.551017 131.319756
10259   1 2 0.0 60.830626 -5.993132 128.336175
10260   1 2 0.0 63.492282 -4.256485 126.373689
10261   1 1 0.0 50.425810 -5.314878 139.961260
10262   1 1 0.0 55.794510 -7.490362 134.832997
10263   1 1 0.0 50.233623 -4.757748 136.507063
10264   1 1 0.0 52.194358 -7.284942 135.000509
10265   1 2 0.0 52.368295 -5.083931 139.403467
10266   1 2 0.0 52.709430 -7.517196 133.106762
10267   1 2 0.0 56.052285 -3.866761 134.293885
10268   1 2 0.0 51.562397 -5.779097 135.442176
10269   1 2 0.0 50.707683 -8.324551 136.044728
10270   1 2 0.0 49.821376 -5.046047 138.418336
10271   1 2 0.0 53.824966 -7.406505 135.434755
10272   1 2 0.0 56.798358 -6.284323 133.472269
10273   1 1 0.0 43.810858 -4.501707 147.059840
10274   1 1 0.0 48.584517 -7.783146 141.931577
10275   1 1 0.0 43.743262 -3.916248 143.605643
10276   1 1 0.0 45.113247 -6.806635 142.099089
10277   1 2 0.0 45.757466 -4.694839 146.502047
10278   1 2 0.0 45.566158 -7.144442 140.205342
10279   1 2 0.0 49.617206 -4.300262 141.392465
10280   1 2 0.0 44.820683 -5.199977 142.540756
10281   1 2 0.0 43.437450 -7.501398 143.143308
10282   1 2 0.0 43.278569 -4.108924 145.516916
10283   1 2 0.0 46.679334 -7.276776 142.533335
10284   1 2 0.0 49.824703 -6.821803 140.570849
10285   1 1 0.0 37.526624 -2.281967 154.158420
10286   1 1 0.0 41.480868 -6.515124 149.030157
10287   1 1 0.0 37.586797 -1.695699 150.704223
10288   1 1 0.0 38.301638 -4.813422 149.197669
10289   1 2 0.0 39.385859 -2.890100 153.600627
10290   1 2 0.0 38.671100 -5.240902 147.303922
10291   1 2 0.0 43.239931 -3.336661 148.491045
10292   1 2 0.0 38.362223 -3.181468 149.639336
10293   1 2 0.0 36.515487 -5.130683 150.241888
10294   1 2 0.0 37.091498 -1.783694 152.615496
10295   1 2 0.0 39.729593 -5.610043 149.631915
10296   1 2 0.0 42.899100 -5.843664 147.669429
10297   1 1 0.0 31.868485 1.240008 161.257000
10298   1 1 0.0 34.817453 -3.745897 156.128737
10299   1 1 0.0 32.053598 1.799530 157.802803
10300   1 1 0.0 32.079696 -1.398988 156.296249
10301   1 2 0.0 33.552959 0.245458 160.699207
10302   1 2 0.0 32.348343 -1.896050 154.402502
10303   1 2 0.0 37.220209 -1.021253 155.589625
10304   1 2 0.0 32.490583 0.181555 156.737916
10305   1 2 0.0 30.267145 -1.323835 157.340468
10306   1 2 0.0 31.550975 1.820351 159.714076
10307   1 2 0.0 33.302402 -2.484645 156.730495
10308   1 2 0.0 36.347070 -3.395880 154.768009
10309   1 1 0.0 27.102390 5.898675 168.355580
10310   1 1 0.0 28.907471 0.394373 163.227317
10311   1 1 0.0 27.403743 6.405151 164.901383
10312   1 1 0.0 26.739871 3.276178 163.394829
10313   1 2 0.0 28.532926 4.564454 167.797787
10314   1 2 0.0 26.895076 2.732898 161.501082
10315   1 2 0.0 31.840985 2.537133 162.688205
10316   1 2 0.0 27.481745 4.731020 163.836496
10317   1 2 0.0 24.986114 3.740213 164.439048
10318   1 2 0.0 26.917419 6.533810 166.812656
10319   1 2 0.0 27.699856 1.952513 163.829075
10320   1 2 0.0 30.476577 0.406495 161.866589
10321   1 1 0.0 23.452358 11.475064 175.454160
10322   1 1 0.0 24.028709 5.711082 170.325897
10323   1 1 0.0 23.855786 11.904688 171.999963
10324   1 1 0.0 22.533148 8.992330 170.493409
10325   1 2 0.0 24.561718 9.863884 174.896367
10326   1 2 0.0 22.567616 8.428368 168.599662
10327   1 2 0.0 27.355098 7.171242 169.786785
10328   1 2 0.0 23.571141 10.253090 170.935076
10329   1 2 0.0 20.920618 9.823436 171.537628
10330   1 2 0.0 23.408621 12.135138 173.911236
10331   1 2 0.0 23.185291 7.492874 170.927655
10332   1 2 0.0 25.563552 5.384740 168.965169
10333   1 1 0.0 21.089951 17.707068 182.552740
10334   1 1 0.0 20.410482 11.954331 177.424477
10335   1 1 0.0 21.576492 18.039647 179.098543
10336   1 1 0.0 19.657256 15.480794 177.591989
10337   1 2 0.0 21.825992 15.894659 181.994947
10338   1 2 0.0 19.569366 14.922657 175.698242
10339   1 2 0.0 23.973395 12.663259 176.885365
10340   1 2 0.0 20.942578 16.488212 178.033656
10341   1 2 0.0 18.261745 16.639905 178.636208
10342   1 2 0.0 21.189504 18.361055 181.009816
10343   1 2 0.0 19.970904 13.876024 178.026235
10344   1 2 0.0 21.838919 11.304863 176.063749
10345   1 1 0.0 20.126209 24.301766 189.651320
10346   1 1 0.0 18.222857 18.830668 184.523057
10347   1 1 0.0 20.672994 24.521668 186.197123
10348   1 1 0.0 18.247369 22.436592 184.690569
10349   1 2 0.0 20.454335 22.373317 189.093527
10350   1 2 0.0 18.041253 21.910514 182.796822
10351   1 2 0.0 21.854827 18.755043 183.983945
10352   1 2 0.0 19.719607 23.143317 185.132236
10353   1 2 0.0 17.134471 23.869229 185.734788
10354   1 2 0.0 20.364372 24.918928 188.108396
10355   1 2 0.0 18.207780 20.801938 185.124815
10356   1 2 0.0 19.477748 17.888601 183.162329
10357   1 1 0.0 20.606430 30.949189 196.749900
10358   1 1 0.0 17.568658 26.016887 191.621637
10359   1 1 0.0 21.187759 31.046077 193.295703
10360   1 1 0.0 18.369757 29.532784 191.789149
10361   1 2 0.0 20.511219 28.995342 196.192107
10362   1 2 0.0 18.055102 29.063493 189.895402
10363   1 2 0.0 21.098973 25.160264 191.082525
10364   1 2 0.0 19.959710 29.905598 192.230816
10365   1 2 0.0 17.591780 31.171607 192.833368
10366   1 2 0.0 20.972009 31.500517 195.206976
10367   1 2 0.0 17.978791 27.945079 192.223395
10368   1 2 0.0 18.591020 24.826501 190.260909
10369   1 1 0.0 22.508043 37.336889 203.848480
10370   1 1 0.0 18.478635 33.175215 198.720217
10371   1 1 0.0 23.096592 37.306210 200.394283
10372   1 1 0.0 20.018666 36.435828 198.887729
10373   1 2 0.0 21.993969 35.449481 203.290687
10374   1 2 0.0 19.610262 36.045381 196.993982
10375   1 2 0.0 21.741360 31.577857 198.181105
10376   1 2 0.0 21.651603 36.457207 199.329396
10377   1 2 0.0 19.612178 38.203809 199.931948
10378   1 2 0.0 22.983855 37.796469 202.305556
10379   1 2 0.0 19.294700 34.969698 199.321975
10380   1 2 0.0 19.220413 31.792462 197.359489
10381   1 1 0.0 25.741666 43.164626 5.625184
10382   1 1 0.0 20.910015 39.969190 0.496921
10383   1 1 0.0 26.309772 43.007822 2.170987
10384   1 1 0.0 23.116593 42.821261 0.664433
10385   1 2 0.0 24.832892 41.432370 5.067391
10386   1 2 0.0 22.633637 42.528011 204.092562
10387   1 2 0.0 23.751793 37.706178 205.279685
10388   1 2 0.0 24.715762 42.490201 1.106100
10389   1 2 0.0 23.100701 44.635300 1.708652
10390   1 2 0.0 26.305346 43.510857 4.082260
10391   1 2 0.0 22.093656 41.545620 1.098679
10392   1 2 0.0 21.336345 38.459063 204.458069
10393   1 1 0.0 30.155311 48.158481 12.723764
10394   1 1 0.0 24.748518 46.079478 7.595501
10395   1 1 0.0 30.676270 47.882921 9.269567
10396   1 1 0.0 27.517927 48.388951 7.763013
10397   1 2 0.0 28.894552 46.662797 12.165971
10398   1 2 0.0 26.983119 48.206681 5.869266
10399   1 2 0.0 27.035777 43.257178 7.056389
10400   1 2 0.0 29.008162 47.721012 8.204680
10401   1 2 0.0 27.893377 50.163783 8.807232
10402   1 2 0.0 30.780365 48.375088 11.180840
10403   1 2 0.0 26.244100 47.363756 8.197259
10404   1 2 0.0 24.839360 44.512957 6.234773
10405   1 1 0.0 35.541523 52.083727 19.822344
10406   1 1 0.0 29.813723 51.218876 14.694081
10407   1 1 0.0 35.990849 51.702365 16.368147
10408   1 1 0.0 33.015793 52.877200 14.861593
10409   1 2 0.0 33.988039 50.894918 19.264551
10410   1 2 0.0 32.454270 52.814478 12.967846
10411   1 2 0.0 31.438956 47.969946 14.154969
10412   1 2 0.0 34.327049 51.903778 15.303260
10413   1 2 0.0 33.764938 54.529402 15.905812
10414   1 2 0.0 36.198571 52.160530 18.279420
10415   1 2 0.0 31.550949 52.150639 15.295839
10416   1 2 0.0 29.564807 49.669592 13.333353
10417   1 1 0.0 41.647136 54.755869 26.920924
10418   1 1 0.0 35.867551 55.145820 21.792661
10419   1 1 0.0 42.003709 54.286629 23.466727
10420   1 1 0.0 39.351776 56.075049 21.960173
10421   1 2 0.0 39.873944 53.929811 26.363131
10422   1 2 0.0 38.789932 56.134822 20.066426
10423   1 2 0.0 36.754367 51.622968 21.253549
10424   1 2 0.0 40.422420 54.841896 22.401840
10425   1 2 0.0 40.439403 57.526963 23.004392
10426   1 2 0.0 42.305295 54.689257 25.378000
10427   1 2 0.0 37.764766 55.681271 22.394419
10428   1 2 0.0 35.290577 53.686593 20.431933
10429   1 1 0.0 48.185168 56.049306 34.019504
10430   1 1 0.0 42.625455 57.675731 28.891241
10431   1 1 0.0 48.432229 55.514244 30.565307
10432   1 1 0.0 46.228067 57.832188 29.058753
10433   1 2 0.0 46.275613 55.624827 33.461711
10434   1 2 0.0 45.692309 58.011647 27.165006
10435   1 2 0.0 42.732171 54.044541 28.352129
10436   1 2 0.0 47.007776 56.397267 29.500420
10437   1 2 0.0 47.603056 59.015571 30.102972
10438   1 2 0.0 48.813503 55.842411 32.476580
10439   1 2 0.0 44.593486 57.789704 29.492999
10440   1 2 0.0 41.747543 56.375150 27.530513
10441   1 1 0.0 53.411270 50.979929 40.512186
10442   1 1 0.0 48.906369 53.608032 35.564470
10443   1 1 0.0 53.772359 50.357433 37.098071
10444   1 1 0.0 52.284802 53.044441 35.649166
10445   1 2 0.0 51.693626 50.913717 39.911594
10446   1 2 0.0 52.006600 53.308728 33.738251
10447   1 2 0.0 48.660766 50.016278 34.765938
10448   1 2 0.0 52.724535 51.486310 36.050497
10449   1 2 0.0 53.656720 53.954252 36.711552
10450   1 2 0.0 54.041433 50.633029 38.991646
10451   1 2 0.0 50.714245 53.331723 36.122798
10452   1 2 0.0 48.066583 52.498114 34.125222
10453   1 1 0.0 58.859023 49.826656 47.610766
10454   1 1 0.0 55.026413 53.363908 42.663050
10455   1 1 0.0 59.077464 49.140966 44.196651
10456   1 1 0.0 58.203980 52.085430 42.747746
10457   1 2 0.0 57.167476 50.132193 47.010174
10458   1 2 0.0 57.989277 52.403465 40.836831
10459   1 2 0.0 54.012474 49.909498 41.864518
10460   1 2 0.0 58.297565 50.469145 43.149077
10461   1 2 0.0 59.739743 52.678178 43.810132
10462   1 2 0.0 59.399612 49.352094 46.090226
10463   1 2 0.0 56.732250 52.704452 43.221378
10464   1 2 0.0 53.967149 52.461068 41.223802
10465   1 1 0.0 63.930189 47.526366 54.709346
10466   1 1 0.0 60.950013 51.806507 49.761630
10467   1 1 0.0 63.995714 46.809712 51.295231
10468   1 1 0.0 63.777360 49.873233 49.846326
10469   1 2 0.0 62.344247 48.189291 54.108754
10470   1 2 0.0 63.636247 50.230067 47.935411
10471   1 2 0.0 59.215395 48.651809 48.963098
10472   1 2 0.0 63.520397 48.274763 50.247657
10473   1 2 0.0 65.404782 50.121058 50.908712
10474   1 2 0.0 64.355794 46.946447 53.188806
10475   1 2 0.0 62.473632 50.794901 50.319958
10476   1 2 0.0 59.721060 51.153181 48.322382
10477   1 1 0.0 68.386409 44.187180 61.807926
10478   1 1 0.0 66.398742 49.009030 56.860210
10479   1 1 0.0 68.295937 43.473246 58.393811
10480   1 1 0.0 68.742977 46.511830 56.944906
10481   1 2 0.0 66.980614 45.176333 61.207334
10482   1 2 0.0 68.682086 46.890692 55.033991
10483   1 2 0.0 64.024978 46.302323 56.061678
10484   1 2 0.0 68.147545 45.006308 57.346237
10485   1 2 0.0 70.385564 46.403083 58.007292
10486   1 2 0.0 68.677024 43.529162 60.287386
10487   1 2 0.0 67.668529 47.692822 57.418538
10488   1 2 0.0 65.057864 48.635927 55.420962
10489   1 1 0.0 72.018227 39.966048 68.906506
10490   1 1 0.0 71.116497 45.102967 63.958790
10491   1 1 0.0 71.776012 39.288391 65.492391
10492   1 1 0.0 72.867432 42.159217 64.043486
10493   1 2 0.0 70.858656 41.234937 68.305914
10494   1 2 0.0 72.889626 42.542298 62.132571
10495   1 2 0.0 68.215159 42.971474 63.160258
10496   1 2 0.0 71.961518 40.817407 64.444817
10497   1 2 0.0 74.447978 41.699009 65.105872
10498   1 2 0.0 72.160194 39.260860 67.385966
10499   1 2 0.0 72.072768 43.544022 64.517118
10500   1 2 0.0 69.726719 45.027624 62.519542
10501   1 1 0.0 74.654938 35.061376 76.005086
10502   1 1 0.0 74.881527 40.271914 71.057370
10503   1 1 0.0 74.272364 34.451848 72.590971
10504   1 1 0.0 75.956866 37.019978 71.142066
10505   1 2 0.0 73.796094 36.550359 75.404494
10506   1 2 0.0 76.061101 37.389273 69.231151
10507   1 2 0.0 71.588988 38.815821 70.258838
10508   1 2 0.0 74.783050 35.904948 71.543397
10509   1 2 0.0 77.401081 36.229940 72.204452
10510   1 2 0.0 74.641584 34.342163 74.484546
10511   1 2 0.0 75.479335 38.543508 71.615698
10512   1 2 0.0 73.508173 40.497872 69.618122
10513   1 1 0.0 76.172609 29.703696 83.103666
10514   1 1 0.0 77.516868 34.742944 78.155950
10515   1 1 0.0 75.667658 29.190946 79.689551
10516   1 1 0.0 77.866065 31.335672 78.240646
10517   1 2 0.0 75.654861 31.342787 82.503074
10518   1 2 0.0 78.047443 31.673823 76.329731
10519   1 2 0.0 73.987886 34.030692 77.357418
10520   1 2 0.0 76.479520 30.499832 78.641977
10521   1 2 0.0 79.106067 30.252938 79.303032
10522   1 2 0.0 76.004561 29.004264 81.583126
10523   1 2 0.0 77.728114 32.926316 78.714278
10524   1 2 0.0 76.224489 35.259582 76.716702
10525   1 1 0.0 76.499905 24.144835 90.202246
10526   1 1 0.0 78.898650 28.775934 85.254530
10527   1 1 0.0 75.896312 23.752965 86.788131
10528   1 1 0.0 78.505292 25.373477 85.339226
10529   1 2 0.0 76.347588 25.856992 89.601654
10530   1 2 0.0 78.755287 25.664590 83.428311
10531   1 2 0.0 75.299097 28.841000 84.455998
10532   1 2 0.0 76.971190 24.856114 85.740557
10533   1 2 0.0 79.482798 24.048939 86.401612
10534   1 2 0.0 76.185063 23.498059 88.681706
10535   1 2 0.0 78.713405 26.956470 85.812858
10536   1 2 0.0 77.747991 29.558968 83.815282
10537   1 1 0.0 75.621443 18.646075 97.300826
10538   1 1 0.0 78.961926 22.651350 92.353110
10539   1 1 0.0 74.947578 18.393503 93.886711
10540   1 1 0.0 77.844502 19.413634 92.437806
10541   1 2 0.0 75.841716 20.350822 96.700234
10542   1 2 0.0 78.151364 19.644025 90.526891
10543   1 2 0.0 75.460991 23.490676 91.554578
10544   1 2 0.0 76.234949 19.239065 92.839137
10545   1 2 0.0 78.513566 17.909549 93.500192
10546   1 2 0.0 75.174605 18.082355 95.780286
10547   1 2 0.0 78.388897 20.914571 92.911438
10548   1 2 0.0 78.007072 23.663976 90.913862
10549   1 1 0.0 73.578513 13.465873 104.399406
10550   1 1 0.0 77.703722 16.657065 99.451690
10551   1 1 0.0 72.866049 13.364471 100.985291
10552   1 1 0.0 75.914754 13.736271 99.536386
10553   1 2 0.0 74.161023 15.083082 103.798814
10554   1 2 0.0 76.264059 13.895112 97.625471
10555   1 2 0.0 74.465958 18.231201 98.653158
10556   1 2 0.0 74.305404 13.912702 99.937717
10557   1 2 0.0 76.243928 12.123335 100.598772
10558   1 2 0.0 73.020680 13.011706 102.878866
10559   1 2 0.0 76.769842 15.084604 100.010018
10560   1 2 0.0 76.989553 17.851687 98.012442
10561   1 1 0.0 70.467138 8.847713 111.497986
10562   1 1 0.0 75.183176 11.074827 106.550270
10563   1 1 0.0 69.749563 8.902247 108.083871
10564   1 1 0.0 72.806751 8.608241 106.634966
10565   1 2 0.0 71.384505 10.301371 110.897394
10566   1 2 0.0 73.182080 8.688065 104.724051
10567   1 2 0.0 72.360768 13.309784 105.751738
10568   1 2 0.0 71.273248 9.127378 107.036297
10569   1 2 0.0 72.780563 6.962266 107.697352
10570   1 2 0.0 69.824531 8.524445 109.977446
10571   1 2 0.0 73.932341 9.740595 107.108598
10572   1 2 0.0 74.743260 12.395294 105.111022
10573   1 1 0.0 66.433561 5.008662 118.596566
10574   1 1 0.0 71.518762 6.167017 113.648850
10575   1 1 0.0 65.744604 5.216568 115.182451
10576   1 1 0.0 68.666578 4.270575 113.733546
10577   1 2 0.0 67.642667 6.230442 117.995974
10578   1 2 0.0 69.050291 4.267631 111.822631
10579   1 2 0.0 69.244370 8.957745 112.850318
10580   1 2 0.0 67.281001 5.108019 114.134877
10581   1 2 0.0 68.286259 2.668927 114.795932
10582   1 2 0.0 65.736385 4.831488 117.076026
10583   1 2 0.0 70.009765 5.133726 114.207178
10584   1 2 0.0 71.373777 7.551264 112.209602
10585   1 1 0.0 61.667372 2.129165 125.695146
10586   1 1 0.0 66.882716 2.164316 120.747430
10587   1 1 0.0 61.039415 2.480672 122.281031
10588   1 1 0.0 63.688835 0.927156 120.832126
10589   1 2 0.0 63.111385 3.061641 125.094554
10590   1 2 0.0 64.062895 0.841582 118.921211
10591   1 2 0.0 65.263245 5.379643 119.948898
10592   1 2 0.0 62.516310 2.043543 121.233457
10593   1 2 0.0 62.972261 -0.554883 121.894512
10594   1 2 0.0 60.948395 2.106413 124.174606
10595   1 2 0.0 65.186484 1.480533 121.305758
10596   1 2 0.0 67.039477 3.547278 119.308182
10597   1 1 0.0 56.392596 0.344567 132.793726
10598   1 1 0.0 61.492948 -0.745139 127.846010
10599   1 1 0.0 55.855154 0.823153 129.379611
10600   1 1 0.0 58.107490 -1.264866 127.930706
10601   1 2 0.0 58.003642 0.943910 132.193134
10602   1 2 0.0 58.454316 -1.429048 126.019791
10603   1 2 0.0 60.604515 2.743659 127.047478
10604   1 2 0.0 57.203129 0.077992 128.332037
10605   1 2 0.0 57.088341 -2.557636 128.993092
10606   1 2 0.0 55.685612 0.477307 131.273186
10607   1 2 0.0 59.689208 -1.047273 128.404338
10608   1 2 0.0 61.944086 0.571537 126.406762
10609   1 1 0.0 50.857160 -0.261250 139.892306
10610   1 1 0.0 55.602790 -2.424593 134.944590
10611   1 1 0.0 50.435497 0.321920 136.478191
10612   1 1 0.0 52.184881 -2.202460 135.029286
10613   1 2 0.0 52.559518 -0.023212 139.291714
10614   1 2 0.0 52.488171 -2.437532 133.118371
10615   1 2 0.0 55.487155 1.173691 134.146058
10616   1 2 0.0 51.591192 -0.696250 135.430617
10617   1 2 0.0 50.911061 -3.245197 136.091672
10618   1 2 0.0 50.195401 0.020742 138.371766
10619   1 2 0.0 53.776323 -2.330879 135.502918
10620   1 2 0.0 56.327100 -1.236093 133.505342
10621   1 1 0.0 45.321248 0.340188 146.990886
10622   1 1 0.0 49.489096 -2.795110 142.043170
10623   1 1 0.0 45.035180 1.000531 143.576771
10624   1 1 0.0 46.199388 -1.841556 142.127866
10625   1 2 0.0 47.034900 0.205733 146.390294
10626   1 2 0.0 46.444887 -2.136470 140.216951
10627   1 2 0.0 50.151695 0.743532 141.244638
10628   1 2 0.0 45.944275 -0.242790 142.529197
10629   1 2 0.0 44.730770 -2.585249 143.190252
10630   1 2 0.0 44.735816 0.758177 145.470346
10631   1 2 0.0 47.725752 -2.309951 142.601498
10632   1 2 0.0 50.452534 -1.790646 140.603922
10633   1 1 0.0 40.045061 2.120612 154.089466
10634   1 1 0.0 43.439228 -1.839272 149.141750
10635   1 1 0.0 39.908036 2.827090 150.675351
10636   1 1 0.0 40.432346 -0.199118 149.226446
10637   1 2 0.0 41.689462 1.619984 153.488874
10638   1 2 0.0 40.608514 -0.540012 147.315531
10639   1 2 0.0 44.848916 1.473400 148.343218
10640   1 2 0.0 40.527801 1.417057 149.627777
10641   1 2 0.0 38.837959 -0.608811 150.288832
10642   1 2 0.0 39.563475 2.654953 152.568926
10643   1 2 0.0 41.821888 -0.985472 149.700078
10644   1 2 0.0 44.596509 -1.066059 147.702502
10645   1 1 0.0 35.276596 4.996337 161.188046
10646   1 1 0.0 37.737546 0.397992 156.240330
10647   1 1 0.0 35.295054 5.715744 157.773931
10648   1 1 0.0 35.154822 2.647655 156.325026
10649   1 2 0.0 36.774454 4.153068 160.587454
10650   1 2 0.0 35.253379 2.276804 154.414111
10651   1 2 0.0 39.828064 3.328991 155.441798
10652   1 2 0.0 35.596358 4.205275 156.726357
10653   1 2 0.0 33.509607 2.591218 157.387412
10654   1 2 0.0 34.921490 5.621913 159.667506
10655   1 2 0.0 36.342230 1.580302 156.798658
10656   1 2 0.0 39.034275 0.903612 154.801082
10657   1 1 0.0 31.239983 8.832197 168.286626
10658   1 1 0.0 32.652045 3.811526 163.338910
10659   1 1 0.0 31.413057 9.530718 164.872511
10660   1 1 0.0 30.614875 6.564956 163.423606
10661   1 2 0.0 32.520895 7.685921 167.686034
10662   1 2 0.0 30.631188 6.181579 161.512691
10663   1 2 0.0 35.325132 6.223086 162.540378
10664   1 2 0.0 31.381738 7.990809 163.824937
10665   1 2 0.0 28.996161 6.864429 164.485992
10666   1 2 0.0 31.028050 9.519604 166.766086
10667   1 2 0.0 31.544336 5.266773 163.897238
10668   1 2 0.0 34.027272 4.025787 161.899662
10669   1 1 0.0 28.124955 13.447894 175.385206
10670   1 1 0.0 28.421758 8.240883 170.437490
10671   1 1 0.0 28.444509 14.092697 171.971091
10672   1 1 0.0 27.025894 11.368662 170.522186
10673   1 2 0.0 29.128714 12.052490 174.784614
10674   1 2 0.0 26.959197 10.990779 168.611271
10675   1 2 0.0 31.551773 10.019654 169.638958
10676   1 2 0.0 28.082039 12.595728 170.923517
10677   1 2 0.0 25.509765 12.009968 171.584572
10678   1 2 0.0 28.066155 14.164823 173.864666
10679   1 2 0.0 27.653722 9.900667 170.995818
10680   1 2 0.0 29.810844 8.153714 168.998242
10681   1 1 0.0 26.077927 18.626478 182.483786
10682   1 1 0.0 25.245520 13.477871 177.536070
10683   1 1 0.0 26.528942 19.187256 179.069671
10684   1 1 0.0 24.556571 16.832985 177.620766
10685   1 2 0.0 26.757354 17.047534 181.883194
10686   1 2 0.0 24.410000 16.478358 175.709851
10687   1 2 0.0 28.685343 14.540246 176.737538
10688   1 2 0.0 25.852358 17.803589 178.022097
10689   1 2 0.0 23.214291 17.785981 178.683152
10690   1 2 0.0 26.175025 19.339231 180.963246
10691   1 2 0.0 24.853258 15.264178 178.094398
10692   1 2 0.0 26.583174 13.093370 176.096822
10693   1 1 0.0 25.195115 24.124541 189.582366
10694   1 1 0.0 23.272624 19.276337 184.634650
10695   1 1 0.0 25.756392 24.574936 186.168251
10696   1 1 0.0 23.322973 22.701086 184.719346
10697   1 2 0.0 25.518275 22.436272 188.981774
10698   1 2 0.0 23.103416 22.386383 182.808431
10699   1 2 0.0 26.860573 19.572381 183.836118
10700   1 2 0.0 24.797495 23.369607 185.120677
10701   1 2 0.0 22.217632 23.920979 185.781732
10702   1 2 0.0 25.443546 24.799617 188.061826
10703   1 2 0.0 23.274572 21.105206 185.192978
10704   1 2 0.0 24.495972 18.612576 183.195402
10705   1 1 0.0 25.518014 29.683659 196.680946
10706   1 1 0.0 22.595801 25.363738 191.733230
10707   1 1 0.0 26.163171 30.002501 193.266831
10708   1 1 0.0 23.383082 28.697149 191.817926
10709   1 2 0.0 25.469716 27.965418 196.080354
10710   1 2 0.0 23.100858 28.437161 189.907011
10711   1 2 0.0 26.163232 24.879536 190.934698
10712   1 2 0.0 24.967032 29.032163 192.219257
10713   1 2 0.0 22.566633 30.126599 192.880312
10714   1 2 0.0 25.906101 30.289327 195.160406
10715   1 2 0.0 22.991867 27.149205 192.291558
10716   1 2 0.0 23.647342 24.451915 190.293982
10717   1 1 0.0 27.031446 35.042538 203.779526
10718   1 1 0.0 23.246863 31.453947 198.831810
10719   1 1 0.0 27.730159 35.214840 200.365411
10720   1 1 0.0 24.734071 34.539340 198.916506
10721   1 2 0.0 26.613962 33.375087 203.178934
10722   1 2 0.0 24.402447 34.346289 197.005591
10723   1 2 0.0 26.626098 30.212258 198.033278
10724   1 2 0.0 26.353001 34.525103 199.317837
10725   1 2 0.0 24.244891 36.111161 199.978892
10726   1 2 0.0 27.540948 35.550330 202.258986
10727   1 2 0.0 24.018432 33.112091 199.390138
10728   1 2 0.0 24.077172 30.336921 197.392562
10729   1 1 0.0 29.664276 39.949295 5.556230
10730   1 1 0.0 25.195210 37.260708 0.608514
10731   1 1 0.0 30.383703 39.966958 2.142115
10732   1 1 0.0 27.312442 39.953062 0.693210
10733   1 2 0.0 28.897228 38.411010 4.955638
10734   1 2 0.0 26.947004 39.836020 204.104171
10735   1 2 0.0 28.227414 35.319896 205.131858
10736   1 2 0.0 28.890256 39.590241 1.094541
10737   1 2 0.0 27.173523 41.593373 1.755596
10738   1 2 0.0 30.271245 40.335343 4.035690
10739   1 2 0.0 26.306015 38.713593 1.166842
10740   1 2 0.0 25.765260 35.990983 204.491142
10741   1 1 0.0 33.292754 44.173298 12.654810
10742   1 1 0.0 28.349262 42.511088 7.707094
10743   1 1 0.0 33.999080 44.035493 9.240695
10744   1 1 0.0 30.997003 44.683853 7.791790
10745   1 2 0.0 32.212195 42.836482 12.054218
10746   1 2 0.0 30.614927 44.648323 5.880875
10747   1 2 0.0 30.891915 39.962375 6.908562
10748   1 2 0.0 32.459539 43.989503 8.193121
10749   1 2 0.0 31.214874 46.315555 8.854176
10750   1 2 0.0 33.968661 44.419458 11.134270
10751   1 2 0.0 29.747093 43.690422 8.265422
10752   1 2 0.0 28.632260 41.148343 6.267846
10753   1 1 0.0 37.746330 47.516009 19.753390
10754   1 1 0.0 32.560772 46.958303 14.805674
10755   1 1 0.0 38.406356 47.229212 16.339275
10756   1 1 0.0 35.614569 48.509354 14.890370
10757   1 2 0.0 36.403051 46.443496 19.152798
10758   1 2 0.0 35.233816 48.557005 12.979455
10759   1 2 0.0 34.494360 43.921486 14.007142
10760   1 2 0.0 36.893085 47.516111 15.291701
10761   1 2 0.0 36.178991 50.055752 15.952756
10762   1 2 0.0 38.459406 47.610709 18.232850
10763   1 2 0.0 34.179927 47.808655 15.364002
10764   1 2 0.0 32.543414 45.566592 13.366426
10765   1 1 0.0 42.815675 49.820310 26.851970
10766   1 1 0.0 37.631785 50.393321 21.904254
10767   1 1 0.0 43.398378 49.398002 23.437855
10768   1 1 0.0 40.948102 51.249755 21.988950
10769   1 2 0.0 41.272812 49.062511 26.251378
10770   1 2 0.0 40.586567 51.378348 20.078035
10771   1 2 0.0 38.865425 47.011140 21.105722
10772   1 2 0.0 41.982504 50.004304 22.390281
10773   1 2 0.0 41.832545 52.638164 23.051336
10774   1 2 0.0 43.532402 49.759100 25.331430
10775   1 2 0.0 39.396159 50.874723 22.462582
10776   1 2 0.0 37.314889 49.038059 20.465006
10777   1 1 0.0 48.262514 50.977892 33.950550
10778   1 1 0.0 43.323951 52.654688 29.002834
10779   1 1 0.0 48.740505 50.439923 30.536435
10780   1 1 0.0 46.746912 52.776250 29.087530
10781   1 2 0.0 46.592587 50.570426 33.349958
10782   1 2 0.0 46.421588 52.979739 27.176615
10783   1 2 0.0 43.799658 49.086114 28.204302
10784   1 2 0.0 47.488579 51.337130 29.488861
10785   1 2 0.0 47.909804 53.941411 30.149916
10786   1 2 0.0 48.949205 50.763649 32.430010
10787   1 2 0.0 45.150613 52.744512 29.561162
10788   1 2 0.0 42.722411 51.399575 27.563586
10789   1 1 0.0 52.900436 45.908505 40.056693
10790   1 1 0.0 49.023882 48.532093 35.288428
10791   1 1 0.0 53.191947 45.304460 36.952427
10792   1 1 0.0 51.947029 47.971607 35.532712
10793   1 2 0.0 51.557196 45.805421 39.292937
10794   1 2 0.0 51.769237 48.229660 33.703768
10795   1 2 0.0 49.228057 44.933622 34.163151
10796   1 2 0.0 52.338727 46.415338 35.902363
10797   1 2 0.0 53.075014 48.903890 36.641838
10798   1 2 0.0 53.410069 45.582880 38.719610
10799   1 2 0.0 50.580098 48.252024 35.899331
10800   1 2 0.0 48.447414 47.428071 33.785710
10801   1 1 0.0 57.267182 44.984515 47.155273
10802   1 1 0.0 54.047178 48.381934 42.387008
10803   1 1 0.0 57.421657 44.331838 44.051007
10804   1 1 0.0 56.780829 47.204612 42.631292
10805   1 2 0.0 55.933293 45.173353 46.391517
10806   1 2 0.0 56.662832 47.494920 40.802348
10807   1 2 0.0 53.470999 44.824028 41.261731
10808   1 2 0.0 56.827909 45.600498 43.000943
10809   1 2 0.0 58.083234 47.871878 43.740418
10810   1 2 0.0 57.694658 44.556704 45.818190
10811   1 2 0.0 55.506460 47.773046 42.997911
10812   1 2 0.0 53.246316 47.428101 40.884290
10813   1 1 0.0 61.332163 43.141102 54.253853
10814   1 1 0.0 58.920057 47.152664 49.485588
10815   1 1 0.0 61.342339 42.470471 51.149587
10816   1 1 0.0 61.335723 45.413845 49.729872
10817   1 2 0.0 60.070321 43.612987 53.490097
10818   1 2 0.0 61.283067 45.722761 47.900928
10819   1 2 0.0 57.590606 43.802554 48.360311
10820   1 2 0.0 61.035971 43.837283 50.099523
10821   1 2 0.0 62.751331 45.784729 50.838998
10822   1 2 0.0 61.657388 42.631214 52.916770
10823   1 2 0.0 60.213814 46.243576 50.096491
10824   1 2 0.0 57.932442 46.393852 47.982870
10825   1 1 0.0 64.904311 40.464912 61.352433
10826   1 1 0.0 63.413480 44.902063 56.584168
10827   1 1 0.0 64.769711 39.807848 58.248167
10828   1 1 0.0 65.397617 42.683475 56.828452
10829   1 2 0.0 63.773826 41.197664 60.588677
10830   1 2 0.0 65.412778 42.996479 54.999508
10831   1 2 0.0 61.393244 41.917213 55.458891
10832   1 2 0.0 64.765124 41.208568 57.198103
10833   1 2 0.0 66.859891 42.740546 57.937578
10834   1 2 0.0 65.112000 39.896913 60.015350
10835   1 2 0.0 64.480902 43.735504 57.195071
10836   1 2 0.0 62.285534 44.373938 55.081450
10837   1 1 0.0 67.815726 37.081733 68.451013
10838   1 1 0.0 67.316243 41.735914 63.682748
10839   1 1 0.0 67.542677 36.469121 65.346747
10840   1 1 0.0 68.775592 39.141837 63.927032
10841   1 2 0.0 66.869735 38.040911 67.687257
10842   1 2 0.0 68.857856 39.444218 62.098088
10843   1 2 0.0 64.700180 39.256622 62.557471
10844   1 2 0.0 67.840085 37.837910 64.296683
10845   1 2 0.0 70.215801 38.882413 65.036158
10846   1 2 0.0 67.896117 36.482321 67.113930
10847   1 2 0.0 68.107158 40.366717 64.293651
10848   1 2 0.0 66.100982 41.463301 62.180030
10849   1 1 0.0 69.929563 33.150585 75.549593
10850   1 1 0.0 70.444905 37.803037 70.781328
10851   1 1 0.0 69.530898 32.611218 72.445327
10852   1 1 0.0 71.310872 34.955400 71.025612
10853   1 2 0.0 69.212530 34.291104 74.785837
10854   1 2 0.0 71.456373 35.232945 69.196668
10855   1 2 0.0 67.355977 35.945835 69.656051
10856   1 2 0.0 70.116324 33.883741 71.395263
10857   1 2 0.0 72.661322 34.391673 72.134738
10858   1 2 0.0 69.878878 32.547934 74.212510
10859   1 2 0.0 70.922138 36.295556 71.392231
10860   1 2 0.0 69.199450 37.798748 69.278610
10861   1 1 0.0 71.146466 28.856242 82.648173
10862   1 1 0.0 72.652411 33.288286 77.879908
10863   1 1 0.0 70.640925 28.415473 79.543907
10864   1 1 0.0 72.884293 30.320936 78.124192
10865   1 2 0.0 70.692093 30.124495 81.884417
10866   1 2 0.0 73.086192 30.560599 76.295248
10867   1 2 0.0 69.235806 32.140469 76.754631
10868   1 2 0.0 71.486851 29.531916 78.493843
10869   1 2 0.0 74.081509 29.479404 79.233318
10870   1 2 0.0 70.967086 28.278678 81.311090
10871   1 2 0.0 72.793530 31.713379 78.490811
10872   1 2 0.0 71.435301 33.552523 76.377190
10873   1 1 0.0 71.409238 24.400551 89.746753
10874   1 1 0.0 73.835002 28.403868 84.978488
10875   1 1 0.0 70.820581 24.079097 86.642487
10876   1 1 0.0 73.421900 25.456280 85.222772
10877   1 2 0.0 71.238882 25.736926 88.982997
10878   1 2 0.0 73.670707 25.646796 83.393828
10879   1 2 0.0 70.251310 28.019386 83.853211
10880   1 2 0.0 71.887247 24.986984 85.592423
10881   1 2 0.0 74.409609 24.376496 86.331898
10882   1 2 0.0 71.109595 23.875221 88.409670
10883   1 2 0.0 73.633374 26.835559 85.589391
10884   1 2 0.0 72.703445 28.924212 83.475770
10885   1 1 0.0 70.705526 19.992941 96.845333
10886   1 1 0.0 73.937091 23.379365 92.077068
10887   1 1 0.0 70.061423 19.805911 93.741067
10888   1 1 0.0 72.898423 20.590082 92.321352
10889   1 2 0.0 70.827195 21.334625 96.081577
10890   1 2 0.0 73.182444 20.722497 90.492408
10891   1 2 0.0 70.354756 23.776289 90.951791
10892   1 2 0.0 71.298692 20.462570 92.691003
10893   1 2 0.0 73.630200 19.322800 93.430478
10894   1 2 0.0 70.299704 19.544537 95.508250
10895   1 2 0.0 73.402195 21.891369 92.687971
10896   1 2 0.0 72.944274 24.131357 90.574350
10897   1 1 0.0 69.068408 15.840583 103.943913
10898   1 1 0.0 72.953882 18.450942 99.175648
10899   1 1 0.0 68.399133 15.796768 100.839647
10900   1 1 0.0 71.338467 15.951069 99.419932
10901   1 2 0.0 69.476383 17.124513 103.180157
10902   1 2 0.0 71.644351 16.019159 97.590988
10903   1 2 0.0 69.541283 19.610616 98.050371
10904   1 2 0.0 69.748850 16.171334 99.789583
10905   1 2 0.0 71.779917 14.555854 100.529058
10906   1 2 0.0 68.575482 15.490181 102.606830
10907   1 2 0.0 72.110858 17.113199 99.786551
10908   1 2 0.0 72.146470 19.399237 97.672930
10909   1 1 0.0 66.574833 12.138648 111.042493
10910   1 1 0.0 70.931587 13.850249 106.274228
10911   1 1 0.0 65.911843 12.240108 107.938227
10912   1 1 0.0 68.815355 11.757287 106.518512
10913   1 2 0.0 67.249937 13.304477 110.278737
10914   1 2 0.0 69.128725 11.757851 104.689568
10915   1 2 0.0 67.849127 15.718165 105.148951
10916   1 2 0.0 67.310568 12.314975 106.888163
10917   1 2 0.0 68.945728 10.299718 107.627638
10918   1 2 0.0 66.017972 11.902719 109.705410
10919   1 2 0.0 69.820060 12.725636 106.885131
10920   1 2 0.0 70.347530 14.950274 104.771510
10921   1 1 0.0 63.342006 9.061139 118.141073
10922   1 1 0.0 67.965261 9.793531 113.372808
10923   1 1 0.0 62.716464 9.303105 115.036807
10924   1 1 0.0 65.447679 8.205855 113.617092
10925   1 2 0.0 64.252507 10.054068 117.377317
10926   1 2 0.0 65.753807 8.138867 111.788148
10927   1 2 0.0 65.357823 12.281892 112.247531
10928   1 2 0.0 64.098453 9.074754 113.986743
10929   1 2 0.0 65.260848 6.754442 114.726218
10930   1 2 0.0 62.747383 8.950772 116.803990
10931   1 2 0.0 66.637475 8.934909 113.983711
10932   1 2 0.0 67.632011 10.993582 111.870090
10933   1 1 0.0 59.521878 6.752707 125.239653
10934   1 1 0.0 64.194328 6.471465 120.471388
10935   1 1 0.0 58.963187 7.123805 122.135387
10936   1 1 0.0 61.393731 5.463700 120.715672
10937   1 2 0.0 60.624981 7.526066 124.475897
10938   1 2 0.0 61.678227 5.332309 118.886728
10939   1 2 0.0 62.184469 9.463311 119.346111
10940   1 2 0.0 60.263482 6.602969 121.085323
10941   1 2 0.0 60.898477 4.086665 121.824798
10942   1 2 0.0 58.917443 6.773089 123.902570
10943   1 2 0.0 62.712693 5.919191 121.082291
10944   1 2 0.0 64.127550 7.715137 118.968670
10945   1 1 0.0 55.294007 5.321855 132.338233
10946   1 1 0.0 59.796033 4.040198 127.569968
10947   1 1 0.0 54.828426 5.804643 129.233967
10948   1 1 0.0 56.844057 3.659713 127.814252
10949   1 2 0.0 56.537863 5.839294 131.574477
10950   1 2 0.0 57.093549 3.470094 125.985308
10951   1 2 0.0 58.478223 7.394904 126.444691
10952   1 2 0.0 55.985910 5.015803 128.183903
10953   1 2 0.0 56.063658 2.421779 128.923378
10954   1 2 0.0 54.708169 5.472028 131.001150
10955   1 2 0.0 58.230191 3.820231 128.180871
10956   1 2 0.0 59.998865 5.269034 126.067250
10957   1 1 0.0 50.857114 4.835836 139.436813
10958   1 1 0.0 54.977109 2.614007 134.668548
10959   1 1 0.0 50.506527 5.407622 136.332547
10960   1 1 0.0 52.012504 2.878684 134.912832
10961   1 2 0.0 52.183258 5.073034 138.673057
10962   1 2 0.0 52.215266 2.639750 133.083888
10963   1 2 0.0 54.413288 6.173892 133.543271
10964   1 2 0.0 51.466794 4.387855 135.282483
10965   1 2 0.0 50.983642 1.838038 136.021958
10966   1 2 0.0 50.317410 5.108742 138.099730
10967   1 2 0.0 53.400658 2.736686 135.279451
10968   1 2 0.0 55.440017 3.770248 133.165830
10969   1 1 0.0 46.419745 5.317496 146.535393
10970   1 1 0.0 49.964058 2.259926 141.767128
10971   1 1 0.0 46.200631 5.951403 143.431127
10972   1 1 0.0 47.126170 3.157325 142.011412
10973   1 2 0.0 47.765845 5.263303 145.771637
10974   1 2 0.0 47.272670 2.880306 140.182468
10975   1 2 0.0 50.180727 5.857665 140.641851
10976   1 2 0.0 46.918547 4.748642 142.381063
10977   1 2 0.0 45.897203 2.362880 143.120538
10978   1 2 0.0 45.951543 5.700306 145.198310
10979   1 2 0.0 48.451096 2.719484 142.378031
10980   1 2 0.0 50.665285 3.289226 140.264410
10981   1 1 0.0 42.190470 6.744194 153.633973
10982   1 1 0.0 44.992507 2.994597 148.865708
10983   1 1 0.0 42.113128 7.410428 150.529707
10984   1 1 0.0 42.414725 4.482539 149.109992
10985   1 2 0.0 43.493255 6.401159 152.870217
10986   1 2 0.0 42.498078 4.180456 147.281048
10987   1 2 0.0 45.979483 6.461088 147.740431
10988   1 2 0.0 42.554948 6.081206 149.479643
10989   1 2 0.0 41.043419 3.971636 150.219118
10990   1 2 0.0 41.815776 7.218916 152.296890
10991   1 2 0.0 43.614148 3.769435 149.476611
10992   1 2 0.0 45.899093 3.848576 147.362990
10993   1 1 0.0 38.368077 9.048871 160.732553
10994   1 1 0.0 40.296135 4.783490 155.964288
10995   1 1 0.0 38.436141 9.716117 157.628287
10996   1 1 0.0 38.099620 6.792037 156.208572
10997   1 2 0.0 39.566312 8.433117 159.968797
10998   1 2 0.0 38.115908 6.479089 154.379628
10999   1 2 0.0 42.007026 7.955797 154.839011
11000   1 2 0.0 38.581099 8.322911 156.578223
11001   1 2 0.0 36.650430 6.588689 157.317698
11002   1 2 0.0 38.104502 9.593193 159.395470
11003   1 2 0.0 39.117164 5.837187 156.575191
11004   1 2 0.0 41.365467 5.422009 154.461570
11005   1 1 0.0 35.132227 12.123203 167.831133
11006   1 1 0.0 36.095682 7.542522 163.062868
11007   1 1 0.0 35.342499 12.760098 164.726867
11008   1 1 0.0 34.383679 9.977265 163.307152
11009   1 2 0.0 36.169592 11.263672 167.067377
11010   1 2 0.0 34.332136 9.668162 161.478208
11011   1 2 0.0 38.450073 10.271537 161.937591
11012   1 2 0.0 35.183781 11.368392 163.676803
11013   1 2 0.0 32.924720 10.091032 164.416278
11014   1 2 0.0 34.992162 12.711539 166.494050
11015   1 2 0.0 35.171516 8.825551 163.673771
11016   1 2 0.0 37.277500 7.935568 161.560150
11017   1 1 0.0 32.635016 15.822685 174.929713
11018   1 1 0.0 32.588583 11.142010 170.161448
11019   1 1 0.0 32.977613 16.399294 171.825447
11020   1 1 0.0 31.441559 13.888511 170.405732
11021   1 2 0.0 33.462753 14.759778 174.165957
11022   1 2 0.0 31.324609 13.597780 168.576788
11023   1 2 0.0 35.475810 13.299462 169.036171
11024   1 2 0.0 32.522679 15.074503 170.775383
11025   1 2 0.0 30.041407 14.314044 171.514858
11026   1 2 0.0 32.625043 16.427382 173.592630
11027   1 2 0.0 31.962659 12.594066 170.772351
11028   1 2 0.0 33.827337 11.271108 168.658730
11029   1 1 0.0 30.993820 19.973433 182.028293
11030   1 1 0.0 29.939681 15.412767 177.260028
11031   1 1 0.0 31.452637 20.462653 178.924027
11032   1 1 0.0 29.411550 18.341933 177.504312
11033   1 2 0.0 31.573021 18.757108 181.264537
11034   1 2 0.0 29.234689 18.083240 175.675368
11035   1 2 0.0 33.224036 16.897250 176.134751
11036   1 2 0.0 30.722872 19.267045 177.873963
11037   1 2 0.0 28.136016 19.059231 178.613438
11038   1 2 0.0 31.114407 20.566068 180.691210
11039   1 2 0.0 29.641420 16.965600 177.870931
11040   1 2 0.0 31.177147 15.271851 175.757310
11041   1 1 0.0 30.285778 24.380350 189.126873
11042   1 1 0.0 28.273481 20.154058 184.358608
11043   1 1 0.0 30.839252 24.759186 186.022607
11044   1 1 0.0 28.389067 23.128208 184.602892
11045   1 2 0.0 30.589221 23.067778 188.363117
11046   1 2 0.0 28.160608 22.913713 182.773948
11047   1 2 0.0 31.800591 20.895797 183.233331
11048   1 2 0.0 29.868954 23.748958 184.972543
11049   1 2 0.0 27.298105 24.103557 185.712018
11050   1 2 0.0 30.531259 24.933067 187.789790
11051   1 2 0.0 28.316902 21.734679 184.969511
11052   1 2 0.0 29.451494 19.749750 182.855890
11053   1 1 0.0 30.544172 28.836297 196.225453
11054   1 1 0.0 27.668301 25.143027 191.457188
11055   1 1 0.0 31.166286 29.086944 193.121187
11056   1 1 0.0 28.422170 28.022369 191.701472
11057   1 2 0.0 30.557593 27.489174 195.461697
11058   1 2 0.0 28.152851 27.862153 189.872528
11059   1 2 0.0 31.272380 25.107158 190.331911
11060   1 2 0.0 30.001064 28.309580 192.071123
11061   1 2 0.0 27.567058 29.209924 192.810598
11062   1 2 0.0 30.903007 29.323118 194.888370
11063   1 2 0.0 28.051362 26.677142 192.068091
11064   1 2 0.0 28.731491 24.494331 189.954470
11065   1 1 0.0 31.756856 33.131833 203.324033
11066   1 1 0.0 28.152584 30.145179 198.555768
11067   1 1 0.0 32.418370 33.242509 200.219767
11068   1 1 0.0 29.509303 32.794376 198.800052
11069   1 2 0.0 31.479624 31.813477 202.560277
11070   1 2 0.0 29.211783 32.695970 196.971108
11071   1 2 0.0 31.664232 29.333388 197.430491
11072   1 2 0.0 31.112992 32.734547 199.169703
11073   1 2 0.0 28.930233 34.138319 199.909178
11074   1 2 0.0 32.212179 33.529876 201.986950
11075   1 2 0.0 28.857282 31.560682 199.166671
11076   1 2 0.0 29.050978 29.282586 197.053050
11077   1 1 0.0 33.866830 37.065056 5.100737
11078   1 1 0.0 29.703568 34.925398 0.332472
11079   1 1 0.0 34.536650 37.030559 1.996471
11080   1 1 0.0 31.599367 37.219931 0.576756
11081   1 2 0.0 33.311977 35.837433 4.336981
11082   1 2 0.0 31.287631 37.187960 204.069688
11083   1 2 0.0 32.957728 33.375843 204.529071
11084   1 2 0.0 33.152473 36.815875 0.946407
11085   1 2 0.0 31.323559 38.657092 1.685882
11086   1 2 0.0 34.397240 37.355612 3.763654
11087   1 2 0.0 30.696779 36.155756 0.943375
11088   1 2 0.0 30.394940 33.889453 204.151630
11089   1 1 0.0 36.774920 40.451094 12.199317
11090   1 1 0.0 32.248353 39.259003 7.431052
11091   1 1 0.0 37.421563 40.273045 9.095051
11092   1 1 0.0 34.594125 41.091020 7.675336
11093   1 2 0.0 35.968524 39.371906 11.435561
11094   1 2 0.0 34.282824 41.126988 5.846392
11095   1 2 0.0 35.092069 37.044515 6.305775
11096   1 2 0.0 36.023647 40.361729 8.044987
11097   1 2 0.0 34.634540 42.553850 8.784462
11098   1 2 0.0 37.355486 40.620505 10.862234
11099   1 2 0.0 33.483394 40.246385 8.041955
11100   1 2 0.0 32.700206 38.098396 5.928334
11101   1 1 0.0 40.344437 43.130792 19.297897
11102   1 1 0.0 35.667327 42.942299 14.529632
11103   1 1 0.0 40.937510 42.817560 16.193631
11104   1 1 0.0 38.352813 44.225693 14.773916
11105   1 2 0.0 39.324402 42.250764 18.534141
11106   1 2 0.0 38.056580 44.327907 12.944972
11107   1 2 0.0 37.966937 40.166967 13.404355
11108   1 2 0.0 39.591559 43.205445 15.143567
11109   1 2 0.0 38.707553 45.645433 15.883042
11110   1 2 0.0 40.947871 43.171096 17.960814
11111   1 2 0.0 37.086146 43.640296 15.140535
11112   1 2 0.0 35.858422 41.711583 13.026914
11113   1 1 0.0 44.407604 44.978198 26.396477
11114   1 1 0.0 39.799788 45.802163 21.628212
11115   1 1 0.0 44.919230 44.544506 23.292211
11116   1 1 0.0 42.698763 46.476609 21.872496
11117   1 2 0.0 43.221874 44.338693 25.632721
11118   1 2 0.0 42.431522 46.640267 20.043552
11119   1 2 0.0 41.447204 42.596434 20.502935
11120   1 2 0.0 43.688510 45.213359 22.242147
11121   1 2 0.0 43.351154 47.786528 22.981622
11122   1 2 0.0 45.005543 44.887500 25.059394
11123   1 2 0.0 41.335698 46.177966 22.239115
11124   1 2 0.0 39.721143 44.559185 20.125494
11125   1 1 0.0 48.773440 45.906478 33.495057
11126   1 1 0.0 44.451499 47.704173 28.726792
11127   1 1 0.0 49.179572 45.372711 30.390791
11128   1 1 0.0 47.427703 47.737970 28.971076
11129   1 2 0.0 47.477749 45.537555 32.731301
11130   1 2 0.0 47.202014 47.955378 27.142132
11131   1 2 0.0 45.369287 44.218726 27.601515
11132   1 2 0.0 48.121929 46.291095 29.340727
11133   1 2 0.0 48.347081 48.876499 30.080202
11134   1 2 0.0 49.337780 45.689041 32.157974
11135   1 2 0.0 46.032307 47.740119 29.337695
11136   1 2 0.0 44.106811 46.507357 27.224074
11137   1 1 0.0 52.386249 61.453693 43.269979
11138   1 1 0.0 47.211503 63.690042 37.414716
11139   1 1 0.0 51.938731 60.859185 40.081836
11140   1 1 0.0 50.531827 63.341735 38.050359
11141   1 2 0.0 50.239911 61.318738 42.695020
11142   1 2 0.0 49.768956 63.558342 36.226167
11143   1 2 0.0 45.489120 60.151114 37.786559
11144   1 2 0.0 50.720616 61.873438 38.830276
11145   1 2 0.0 52.569419 64.273113 38.865774
11146   1 2 0.0 52.710829 61.154743 41.877373
11147   1 2 0.0 49.107193 63.530833 38.239495
11148   1 2 0.0 45.518659 62.531732 36.396704
11149   1 1 0.0 60.115437 60.275189 50.368559
11150   1 1 0.0 55.544291 63.574261 44.513296
11151   1 1 0.0 59.550305 59.791103 47.180416
11152   1 1 0.0 58.711515 62.518531 45.148939
11153   1 2 0.0 57.990455 60.605992 49.793600
11154   1 2 0.0 58.013255 62.894464 43.324747
11155   1 2 0.0 53.099664 60.489717 44.885139
11156   1 2 0.0 58.579414 61.044052 45.928856
11157   1 2 0.0 60.901954 62.988871 45.964354
11158   1 2 0.0 60.367959 59.913310 48.975953
11159   1 2 0.0 57.361117 63.010227 45.338075
11160   1 2 0.0 53.641588 62.808021 43.495284
11161   1 1 0.0 67.408983 57.458557 57.467139
11162   1 1 0.0 63.656293 61.665287 51.611876
11163   1 1 0.0 66.752800 57.107647 54.278996
11164   1 1 0.0 66.521548 59.951756 52.247519
11165   1 2 0.0 65.405237 58.239570 56.892180
11166   1 2 0.0 65.920721 60.469345 50.423327
11167   1 2 0.0 60.604326 59.180109 51.983719
11168   1 2 0.0 66.074766 58.540401 53.027436
11169   1 2 0.0 68.761878 59.938951 53.062934
11170   1 2 0.0 67.577576 57.050758 56.074533
11171   1 2 0.0 65.308858 60.722939 52.436655
11172   1 2 0.0 61.633164 61.327132 50.593864
11173   1 1 0.0 73.924069 53.136187 64.565719
11174   1 1 0.0 71.166223 58.052847 58.710456
11175   1 1 0.0 73.207678 52.934947 61.377576
11176   1 1 0.0 73.594833 55.762056 59.346099
11177   1 2 0.0 72.135741 54.330700 63.990760
11178   1 2 0.0 73.119680 56.396974 57.521907
11179   1 2 0.0 67.650366 56.283846 59.082299
11180   1 2 0.0 72.854371 54.480162 60.126016
11181   1 2 0.0 75.779753 55.266707 60.161514
11182   1 2 0.0 74.000809 52.701637 63.173113
11183   1 2 0.0 72.576852 56.776479 59.535235
11184   1 2 0.0 69.117760 58.158672 57.692444
11185   1 1 0.0 79.354468 47.511244 71.664299
11186   1 1 0.0 77.721092 52.906737 65.809036
11187   1 1 0.0 78.611541 47.469133 68.476156
11188   1 1 0.0 79.598907 50.146359 66.444679
11189   1 2 0.0 77.865614 49.063111 71.089340
11190   1 2 0.0 79.271760 50.868762 64.620487
11191   1 2 0.0 73.906601 51.937060 66.180879
11192   1 2 0.0 78.599568 49.054178 67.224596
11193   1 2 0.0 81.625719 49.191749 67.260094
11194   1 2 0.0 79.335749 47.070366 70.271693
11195   1 2 0.0 78.823482 51.356341 66.633815
11196   1 2 0.0 75.743578 53.451567 64.791024
11197   1 1 0.0 83.444935 40.848114 78.762879
11198   1 1 0.0 83.012803 46.468837 72.907616
11199   1 1 0.0 82.710393 40.967111 75.574736
11200   1 1 0.0 84.251560 43.368619 73.543259
11201   1 2 0.0 82.325536 42.684394 78.187920
11202   1 2 0.0 84.087797 44.144552 71.719067
11203   1 2 0.0 79.078970 46.344063 73.279459
11204   1 2 0.0 83.040316 42.517486 74.323176
11205   1 2 0.0 86.024998 41.999617 74.358674
11206   1 2 0.0 83.331637 40.421632 77.370273
11207   1 2 0.0 83.755138 44.717286 73.732395
11208   1 2 0.0 81.199188 47.427064 71.889604
11209   1 1 0.0 86.003209 33.459985 85.861459
11210   1 1 0.0 86.792632 39.041747 80.006196
11211   1 1 0.0 85.311576 33.734496 82.673316
11212   1 1 0.0 87.334106 35.747407 80.641839
11213   1 2 0.0 85.305879 35.494367 85.286500
11214   1 2 0.0 87.341422 36.540400 78.817647
11215   1 2 0.0 82.924357 39.767740 80.378039
11216   1 2 0.0 85.967888 35.177329 81.421756
11217   1 2 0.0 88.770813 34.028361 81.457254
11218   1 2 0.0 85.800656 33.067944 84.468853
11219   1 2 0.0 87.140020 37.171370 80.830975
11220   1 2 0.0 85.228160 40.368332 78.988184
11221   1 1 0.0 86.909042 25.694118 92.960039
11222   1 1 0.0 88.882915 30.974562 87.104776
11223   1 1 0.0 86.292827 26.111241 89.771896
11224   1 1 0.0 88.701655 27.640943 87.740419
11225   1 2 0.0 86.666558 27.830980 92.385080
11226   1 2 0.0 88.879708 28.413722 85.916227
11227   1 2 0.0 85.262019 32.517198 87.476619
11228   1 2 0.0 87.244680 27.378715 88.520336
11229   1 2 0.0 89.734102 25.652652 88.555834
11230   1 2 0.0 86.626756 25.354946 91.567433
11231   1 2 0.0 88.819028 29.073270 87.929555
11232   1 2 0.0 87.641120 32.607151 86.086764
11233   1 1 0.0 86.119858 17.915532 100.058619
11234   1 1 0.0 89.185403 22.646461 94.203356
11235   1 1 0.0 85.608025 18.455661 96.870476
11236   1 1 0.0 88.289928 19.430252 94.838999
11237   1 2 0.0 86.343617 20.054436 99.483660
11238   1 2 0.0 88.630350 20.146495 93.014807
11239   1 2 0.0 85.982078 24.933232 94.575199
11240   1 2 0.0 86.810678 19.488200 95.618916
11241   1 2 0.0 88.869588 17.266173 95.654414
11242   1 2 0.0 85.771106 17.645170 98.666013
11243   1 2 0.0 88.713244 20.803622 95.028135
11244   1 2 0.0 88.324654 24.508318 93.185344
11245   1 1 0.0 83.672751 10.489841 107.157199
11246   1 1 0.0 87.685879 14.448889 101.301936
11247   1 1 0.0 83.289357 11.127588 103.969056
11248   1 1 0.0 86.118280 11.501261 101.937579
11249   1 2 0.0 84.352236 12.530252 106.582240
11250   1 2 0.0 86.605068 12.127303 100.113387
11251   1 2 0.0 85.050690 17.372310 101.673779
11252   1 2 0.0 84.686283 11.876661 102.717496
11253   1 2 0.0 86.217906 9.263111 102.752994
11254   1 2 0.0 83.273925 10.300997 105.764593
11255   1 2 0.0 86.827641 12.751120 102.126715
11256   1 2 0.0 87.246633 16.452501 100.283924
11257   1 1 0.0 79.682741 3.766073 114.255779
11258   1 1 0.0 84.454824 6.767154 108.400516
11259   1 1 0.0 79.445808 4.471464 111.067636
11260   1 1 0.0 82.288782 4.226655 109.036159
11261   1 2 0.0 80.786014 5.612087 113.680820
11262   1 2 0.0 82.899057 4.733069 107.211967
11263   1 2 0.0 82.511632 10.189817 108.772359
11264   1 2 0.0 80.971347 4.901861 109.816076
11265   1 2 0.0 81.903692 2.019632 109.851574
11266   1 2 0.0 79.252588 3.667624 112.863173
11267   1 2 0.0 83.250846 5.294256 109.225295
11268   1 2 0.0 84.457727 8.818347 107.382504
11269   1 1 0.0 74.337371 -1.939734 121.354359
11270   1 1 0.0 79.644107 -0.037680 115.499096
11271   1 1 0.0 74.258034 -1.199856 118.166216
11272   1 1 0.0 76.981432 -2.051640 116.134739
11273   1 2 0.0 75.812575 -0.374886 120.779400
11274   1 2 0.0 77.686509 -1.688656 114.310547
11275   1 2 0.0 78.484248 3.723349 115.870939
11276   1 2 0.0 75.840482 -1.108364 116.914656
11277   1 2 0.0 76.129726 -4.123799 116.950154
11278   1 2 0.0 73.896109 -1.943161 119.961753
11279   1 2 0.0 78.150980 -1.216477 116.323875
11280   1 2 0.0 80.089023 1.964681 114.481084
11281   1 1 0.0 67.887887 -6.359392 128.452939
11282   1 1 0.0 73.479845 -5.645767 122.597676
11283   1 1 0.0 67.969876 -5.619804 125.264796
11284   1 1 0.0 70.445691 -7.038527 123.233319
11285   1 2 0.0 69.665684 -5.149262 127.877980
11286   1 2 0.0 71.212429 -6.836034 121.409127
11287   1 2 0.0 73.157836 -1.723150 122.969519
11288   1 2 0.0 69.534853 -5.871517 124.013236
11289   1 2 0.0 69.167402 -8.878424 124.048734
11290   1 2 0.0 67.456257 -6.267637 127.060333
11291   1 2 0.0 71.767750 -6.475057 123.422455
11292   1 2 0.0 74.345861 -3.786354 121.579664
11293   1 1 0.0 60.637434 -9.285166 135.551519
11294   1 1 0.0 66.251776 -9.793512 129.696256
11295   1 1 0.0 60.876894 -8.580629 132.363376
11296   1 1 0.0 62.988756 -10.499607 130.331899
11297   1 2 0.0 62.634262 -8.486633 134.976560
11298   1 2 0.0 63.781117 -10.467124 128.507707
11299   1 2 0.0 66.782752 -5.893681 130.068099
11300   1 2 0.0 62.350842 -9.163716 131.111816
11301   1 2 0.0 61.343967 -12.020763 131.147314
11302   1 2 0.0 60.235723 -9.102540 134.158913
11303   1 2 0.0 64.401186 -10.234314 130.521035
11304   1 2 0.0 67.498187 -8.164445 128.678244
11305   1 1 0.0 52.926803 -10.579534 142.650099
11306   1 1 0.0 58.299640 -12.285957 136.794836
11307   1 1 0.0 53.312480 -9.943165 139.461956
11308   1 1 0.0 54.961124 -12.272200 137.430479
11309   1 2 0.0 55.048806 -10.230132 142.075140
11310   1 2 0.0 55.741865 -12.411253 135.606287
11311   1 2 0.0 59.658643 -8.592216 137.166679
11312   1 2 0.0 54.626119 -10.830219 138.210396
11313   1 2 0.0 53.027145 -13.403116 138.245894
11314   1 2 0.0 52.573893 -10.314622 141.257493
11315   1 2 0.0 56.397538 -12.317555 137.619615
11316   1 2 0.0 59.867861 -10.963807 135.776824
11317   1 1 0.0 45.118415 -10.181659 149.748679
11318   1 1 0.0 49.997208 -13.005953 143.893416
11319   1 1 0.0 45.632181 -9.643368 146.560536
11320   1 1 0.0 46.740118 -12.272990 144.529059
11321   1 2 0.0 47.265853 -10.297810 149.173720
11322   1 2 0.0 47.472540 -12.577043 142.704867
11323   1 2 0.0 52.120361 -9.691917 144.265259
11324   1 2 0.0 46.723767 -10.792696 145.308976
11325   1 2 0.0 44.607851 -12.960509 145.344474
11326   1 2 0.0 44.830894 -9.846913 148.356073
11327   1 2 0.0 48.132998 -12.626860 144.718195
11328   1 2 0.0 51.813529 -12.052864 142.875404
11329   1 1 0.0 37.579287 -8.110242 156.847259
11330   1 1 0.0 41.734719 -11.919657 150.991996
11331   1 1 0.0 38.196993 -7.695330 153.659116
11332   1 1 0.0 38.712146 -10.501939 151.627639
11333   1 2 0.0 39.651223 -8.686487 156.272300
11334   1 2 0.0 39.361825 -10.956700 149.803447
11335   1 2 0.0 44.522229 -9.141095 151.363839
11336   1 2 0.0 39.015218 -9.052909 152.407556
11337   1 2 0.0 36.481814 -10.713746 152.443054
11338   1 2 0.0 37.370669 -7.721395 155.454653
11339   1 2 0.0 39.996024 -11.147691 151.816775
11340   1 2 0.0 43.713767 -11.380427 149.973984
11341   1 1 0.0 30.663779 -4.462644 163.945839
11342   1 1 0.0 33.900533 -9.078127 158.090576
11343   1 1 0.0 31.356392 -4.190614 160.757696
11344   1 1 0.0 31.254546 -7.042291 158.726219
11345   1 2 0.0 32.562827 -5.471898 163.370880
11346   1 2 0.0 31.790945 -7.626387 156.902027
11347   1 2 0.0 37.221378 -6.965640 158.462419
11348   1 2 0.0 31.862796 -5.692635 159.506136
11349   1 2 0.0 29.030981 -6.768430 159.541634
11350   1 2 0.0 30.543870 -4.037973 162.553233
11351   1 2 0.0 32.369077 -7.949573 158.915355
11352   1 2 0.0 35.949287 -8.978102 157.072564
11353   1 1 0.0 24.696939 0.589686 171.044419
11354   1 1 0.0 26.862878 -4.614924 165.189156
11355   1 1 0.0 25.431903 0.706049 167.856276
11356   1 1 0.0 24.717847 -2.056660 165.824799
11357   1 2 0.0 26.333839 -0.805139 170.469460
11358   1 2 0.0 25.115753 -2.742635 164.000607
11359   1 2 0.0 30.560970 -3.267805 165.560999
11360   1 2 0.0 25.602685 -0.869815 166.604716
11361   1 2 0.0 22.605562 -1.310004 166.640214
11362   1 2 0.0 24.671374 1.030220 169.651813
11363   1 2 0.0 25.610644 -3.182828 166.013935
11364   1 2 0.0 28.885042 -4.958805 164.171144
11365   1 1 0.0 19.959225 6.809275 178.142999
11366   1 1 0.0 20.952545 1.260169 172.287736
11367   1 1 0.0 20.701995 6.764501 174.954856
11368   1 1 0.0 19.409291 4.220616 172.923379
11369   1 2 0.0 21.257037 5.094439 177.568040
11370   1 2 0.0 19.650002 3.465004 171.099187
11371   1 2 0.0 24.854063 1.778603 172.659579
11372   1 2 0.0 20.529127 5.188865 173.703296
11373   1 2 0.0 17.507570 5.404972 173.738794
11374   1 2 0.0 20.029206 7.244965 176.750393
11375   1 2 0.0 20.038390 2.928496 173.112515
11376   1 2 0.0 22.853070 0.488546 171.269724
11377   1 1 0.0 16.673323 13.903785 185.241579
11378   1 1 0.0 16.447335 8.271007 179.386316
11379   1 1 0.0 17.388987 13.699978 182.053436
11380   1 1 0.0 15.578396 11.494486 180.021959
11381   1 2 0.0 17.571047 11.949541 184.666620
11382   1 2 0.0 15.650598 10.704753 178.197767
11383   1 2 0.0 20.368896 7.936387 179.758159
11384   1 2 0.0 16.880595 12.198629 180.801876
11385   1 2 0.0 13.976625 13.060875 180.837374
11386   1 2 0.0 16.835562 14.314153 183.848973
11387   1 2 0.0 15.914228 10.097147 180.211095
11388   1 2 0.0 18.136892 7.107909 178.368304
11389   1 1 0.0 14.993680 21.539754 192.340159
11390   1 1 0.0 13.559005 16.088060 186.484896
11391   1 1 0.0 15.648600 21.186494 189.152016
11392   1 1 0.0 13.405224 19.423060 187.120539
11393   1 2 0.0 15.449120 19.437956 191.765200
11394   1 2 0.0 13.305523 18.636326 185.296347
11395   1 2 0.0 17.316286 14.916114 186.856739
11396   1 2 0.0 14.828579 19.829999 187.900456
11397   1 2 0.0 12.178690 21.297856 187.935954
11398   1 2 0.0 15.240550 21.905512 190.947553
11399   1 2 0.0 13.432004 17.986180 187.309675
11400   1 2 0.0 14.958180 14.588157 185.466884
11401   1 1 0.0 14.999244 29.358270 199.438739
11402   1 1 0.0 12.423316 24.343905 193.583476
11403   1 1 0.0 15.562636 28.872161 196.250596
11404   1 1 0.0 12.991921 27.633671 194.219119
11405   1 2 0.0 14.990993 27.207709 198.863780
11406   1 2 0.0 12.725003 26.886914 192.394927
11407   1 2 0.0 15.839713 22.389718 193.955319
11408   1 2 0.0 14.469530 27.724280 194.999036
11409   1 2 0.0 12.198276 29.728753 195.034534
11410   1 2 0.0 15.319141 29.662225 198.046133
11411   1 2 0.0 12.708390 26.224789 194.408255
11412   1 2 0.0 13.466344 22.577696 192.565464
11413   1 1 0.0 16.689752 36.991840 1.215443
11414   1 1 0.0 13.093648 32.650494 200.682056
11415   1 1 0.0 17.135137 36.395732 203.349176
11416   1 1 0.0 14.357913 35.740398 201.317699
11417   1 2 0.0 16.218199 34.893599 0.640484
11418   1 2 0.0 13.936324 35.068718 199.493507
11419   1 2 0.0 16.008581 30.005918 201.053899
11420   1 2 0.0 15.820324 35.510417 202.097616
11421   1 2 0.0 14.034459 37.957292 202.133114
11422   1 2 0.0 17.067642 37.219707 205.144713
11423   1 2 0.0 13.777397 34.425734 201.506835
11424   1 2 0.0 13.731503 30.700996 199.664044
11425   1 1 0.0 19.985748 44.081667 8.314023
11426   1 1 0.0 15.538494 40.617394 2.458760
11427   1 1 0.0 20.292189 43.403576 5.125880
11428   1 1 0.0 17.438994 43.362201 3.094403
11429   1 2 0.0 19.073056 42.134368 7.739064
11430   1 2 0.0 16.882550 42.797170 1.270211
11431   1 2 0.0 17.814953 37.406732 2.830603
11432   1 2 0.0 18.817471 42.822441 3.874320
11433   1 2 0.0 17.600935 45.596708 3.909818
11434   1 2 0.0 20.403867 44.222734 6.921417
11435   1 2 0.0 16.588780 42.203549 3.283539
11436   1 2 0.0 15.741195 38.576239 1.440748
11437   1 1 0.0 24.732309 50.294507 15.412603
11438   1 1 0.0 19.642938 47.870138 9.557340
11439   1 1 0.0 24.885404 49.566307 12.224460
11440   1 1 0.0 22.090345 50.140836 10.192983
11441   1 2 0.0 23.421377 48.589679 14.837644
11442   1 2 0.0 21.425201 49.709010 8.368791
11443   1 2 0.0 21.173923 44.244300 9.929183
11444   1 2 0.0 23.320095 49.316667 10.972900
11445   1 2 0.0 22.730070 52.287926 11.008398
11446   1 2 0.0 25.171005 50.342144 14.019997
11447   1 2 0.0 21.010395 49.192655 10.382119
11448   1 2 0.0 19.400959 45.833266 8.539328
11449   1 1 0.0 30.706333 55.338340 22.511183
11450   1 1 0.0 25.214061 54.067827 16.655920
11451   1 1 0.0 30.698886 54.594258 19.323040
11452   1 1 0.0 28.093340 55.757686 17.291563
11453   1 2 0.0 29.058779 53.956115 21.936224
11454   1 2 0.0 27.350758 55.479363 15.467371
11455   1 2 0.0 25.927612 50.197238 17.027763
11456   1 2 0.0 29.116561 54.687846 18.071480
11457   1 2 0.0 29.180779 57.716441 18.106978
11458   1 2 0.0 31.144986 55.290308 21.118577
11459   1 2 0.0 26.834415 55.064544 17.480699
11460   1 2 0.0 24.538774 52.130977 15.637908
11461   1 1 0.0 37.627026 58.976091 29.609763
11462   1 1 0.0 31.990004 58.919153 23.754500
11463   1 1 0.0 37.459386 58.251102 26.421620
11464   1 1 0.0 35.165821 59.948745 24.390143
11465   1 2 0.0 35.720289 57.981438 29.034804
11466   1 2 0.0 34.380706 59.837007 22.565951
11467   1 2 0.0 31.852581 54.985741 24.126343
11468   1 2 0.0 35.934418 58.683519 25.170060
11469   1 2 0.0 36.649862 61.627097 25.205558
11470   1 2 0.0 38.045018 58.834648 28.217157
11471   1 2 0.0 33.787093 59.543220 24.579279
11472   1 2 0.0 30.913150 57.173362 22.736488
11473   1 1 0.0 45.169094 61.036777 36.708343
11474   1 1 0.0 39.652278 62.196089 30.853080
11475   1 1 0.0 44.849142 60.364956 33.520200
11476   1 1 0.0 42.975361 62.517020 31.488723
11477   1 2 0.0 43.092797 60.476446 36.133384
11478   1 2 0.0 42.184615 62.577119 29.664531
11479   1 2 0.0 38.670342 58.384735 31.224923
11480   1 2 0.0 43.453209 61.115877 32.268640
11481   1 2 0.0 44.786250 63.836082 32.304138
11482   1 2 0.0 45.546778 60.808571 35.315737
11483   1 2 0.0 41.541635 62.418174 31.677859
11484   1 2 0.0 38.224473 60.723414 29.835068
11485   1 1 0.0 50.646259 56.698630 43.944519
11486   1 1 0.0 45.597051 58.749497 38.686188
11487   1 1 0.0 50.737381 55.935999 40.500720
11488   1 1 0.0 49.134498 58.409581 38.886036
11489   1 2 0.0 48.657999 56.524905 43.393422
11490   1 2 0.0 48.657808 58.558591 36.973354
11491   1 2 0.0 44.811314 55.162949 38.295332
11492   1 2 0.0 49.530821 56.931013 39.407098
11493   1 2 0.0 50.819075 59.415612 39.851403
11494   1 2 0.0 51.205274 56.317019 42.406190
11495   1 2 0.0 47.532580 58.619403 39.307877
11496   1 2 0.0 44.401607 57.528477 37.392560
11497   1 1 0.0 57.391510 56.006886 51.043099
11498   1 1 0.0 52.902976 59.097779 45.784768
11499   1 1 0.0 57.316126 55.242538 47.599300
11500   1 1 0.0 56.284029 58.003447 45.984616
11501   1 2 0.0 55.412535 56.265760 50.492002
11502   1 2 0.0 55.850657 58.251693 44.071934
11503   1 2 0.0 51.362719 55.764864 45.393912
11504   1 2 0.0 56.352370 56.474210 46.505678
11505   1 2 0.0 58.145839 58.622769 46.949983
11506   1 2 0.0 57.855142 55.513761 49.504770
11507   1 2 0.0 54.764979 58.553589 46.406457
11508   1 2 0.0 51.472468 58.163101 44.491140
11509   1 1 0.0 63.829151 53.877636 58.141679
11510   1 1 0.0 60.112264 57.863274 52.883348
11511   1 1 0.0 63.590803 53.147498 54.697880
11512   1 1 0.0 63.178003 56.065964 53.083196
11513   1 2 0.0 61.952478 54.556942 57.590582
11514   1 2 0.0 62.808319 56.401778 51.170514
11515   1 2 0.0 57.889883 54.940650 52.492492
11516   1 2 0.0 62.915152 54.557937 53.604258
11517   1 2 0.0 65.129537 56.269466 54.048563
11518   1 2 0.0 64.175607 53.296177 56.603350
11519   1 2 0.0 61.813222 56.930568 53.505037
11520   1 2 0.0 58.513930 57.258871 51.589720
11521   1 1 0.0 69.656594 50.410962 65.240259
11522   1 1 0.0 66.886060 55.104010 59.981928
11523   1 1 0.0 69.266486 49.749353 61.796460
11524   1 1 0.0 69.492386 52.688199 60.181776
11525   1 2 0.0 67.970433 51.478771 64.689162
11526   1 2 0.0 69.203766 53.095796 58.269094
11527   1 2 0.0 64.086013 52.729047 59.591072
11528   1 2 0.0 68.910697 51.272264 60.702838
11529   1 2 0.0 71.441916 52.466317 61.147143
11530   1 2 0.0 69.869590 49.768499 63.701930
11531   1 2 0.0 68.346022 53.826627 60.603617
11532   1 2 0.0 65.195025 54.858290 58.688300
11533   1 1 0.0 74.599934 45.769807 72.338839
11534   1 1 0.0 72.905974 50.949678 67.080508
11535   1 1 0.0 74.076402 45.207825 68.895040
11536   1 1 0.0 74.930384 48.028917 67.280356
11537   1 2 0.0 73.183538 47.175929 71.787742
11538   1 2 0.0 74.736394 48.489140 65.367674
11539   1 2 0.0 69.659871 49.234007 66.689652
11540   1 2 0.0 74.057197 46.771626 67.801418
11541   1 2 0.0 76.786276 47.392079 68.245723
11542   1 2 0.0 74.669458 45.096537 70.800510
11543   1 2 0.0 74.056319 49.387658 67.702197
11544   1 2 0.0 71.201723 51.074191 65.786880
11545   1 1 0.0 78.426819 40.172319 79.437419
11546   1 1 0.0 77.889055 45.595544 74.179088
11547   1 1 0.0 77.794470 39.736378 75.993620
11548   1 1 0.0 79.236395 42.307116 74.378936
11549   1 2 0.0 77.346763 41.850662 78.886322
11550   1 2 0.0 79.146153 42.798333 72.466254
11551   1 2 0.0 74.349472 44.619806 73.788232
11552   1 2 0.0 78.112753 41.267566 74.899998
11553   1 2 0.0 80.911417 41.285257 75.344303
11554   1 2 0.0 78.349603 39.499888 77.899090
11555   1 2 0.0 78.675713 43.822308 74.800777
11556   1 2 0.0 76.251692 46.084437 72.885460
11557   1 1 0.0 80.957376 33.881595 86.535999
11558   1 1 0.0 81.601083 39.293267 81.277668
11559   1 1 0.0 80.245932 33.592185 83.092200
11560   1 1 0.0 82.208025 35.791739 81.477516
11561   1 2 0.0 80.264425 35.753273 85.984902
11562   1 2 0.0 82.225772 36.290860 79.564834
11563   1 2 0.0 77.934391 39.103325 80.886812
11564   1 2 0.0 80.886742 35.018791 81.998578
11565   1 2 0.0 83.623446 34.432887 82.442883
11566   1 2 0.0 80.737049 33.241609 84.997670
11567   1 2 0.0 81.987079 37.392161 81.899357
11568   1 2 0.0 80.107569 40.123562 79.984040
11569   1 1 0.0 82.072660 27.193316 93.634579
11570   1 1 0.0 83.867583 32.339073 88.376248
11571   1 1 0.0 81.315561 27.064041 90.190780
11572   1 1 0.0 83.705598 28.789025 88.576096
11573   1 2 0.0 81.799386 29.170354 93.083482
11574   1 2 0.0 83.830501 29.272591 86.663414
11575   1 2 0.0 80.246126 32.943853 87.985392
11576   1 2 0.0 82.248779 28.319010 89.097158
11577   1 2 0.0 84.794891 27.157051 89.541463
11578   1 2 0.0 81.719579 26.615856 92.096250
11579   1 2 0.0 83.834774 30.399454 88.997937
11580   1 2 0.0 82.588117 33.471742 87.082620
11581   1 1 0.0 81.720250 20.421852 100.733159
11582   1 1 0.0 84.582023 25.059827 95.474828
11583   1 1 0.0 80.953083 20.458788 97.289360
11584   1 1 0.0 83.658725 21.628122 95.674676
11585   1 2 0.0 81.879497 22.411324 100.182062
11586   1 2 0.0 83.884913 22.073404 93.761994
11587   1 2 0.0 81.176020 26.430904 95.083972
11588   1 2 0.0 82.134844 21.483132 96.195738
11589   1 2 0.0 84.370689 19.799733 96.640043
11590   1 2 0.0 81.251011 19.934060 99.194830
11591   1 2 0.0 84.131951 23.172863 96.096517
11592   1 2 0.0 83.576743 26.441633 94.181200
11593   1 1 0.0 79.916712 13.885479 107.831739
11594   1 1 0.0 83.710823 17.797675 102.573408
11595   1 1 0.0 79.175534 14.086889 104.387940
11596   1 1 0.0 82.069610 14.645612 102.773256
11597   1 2 0.0 80.500995 15.793874 107.280642
11598   1 2 0.0 82.386450 15.031681 100.860574
11599   1 2 0.0 80.680365 19.870605 102.182552
11600   1 2 0.0 80.550293 14.832463 103.294318
11601   1 2 0.0 82.370780 12.706748 103.738623
11602   1 2 0.0 79.353370 13.510283 106.293410
11603   1 2 0.0 82.864643 16.052059 103.195097
11604   1 2 0.0 83.026980 19.363668 101.279780
11605   1 1 0.0 76.746815 7.891425 114.930319
11606   1 1 0.0 81.294930 10.893958 109.671988
11607   1 1 0.0 76.066465 8.247844 111.486520
11608   1 1 0.0 79.012943 8.169694 109.871836
11609   1 2 0.0 77.728671 9.629043 114.379222
11610   1 2 0.0 79.405545 8.478403 107.959154
11611   1 2 0.0 78.782458 13.571307 109.281132
11612   1 2 0.0 77.569604 8.679602 110.392898
11613   1 2 0.0 78.889165 6.211487 110.837203
11614   1 2 0.0 76.115849 7.646461 113.391990
11615   1 2 0.0 80.092415 9.371738 110.293677
11616   1 2 0.0 80.964667 12.570532 108.378360
11617   1 1 0.0 72.359554 2.721428 122.028899
11618   1 1 0.0 77.447900 4.673170 116.770568
11619   1 1 0.0 71.772010 3.216102 118.585100
11620   1 1 0.0 74.632399 2.504753 116.970416
11621   1 2 0.0 73.692833 4.206597 121.477802
11622   1 2 0.0 75.082308 2.721591 115.057734
11623   1 2 0.0 75.571507 7.829095 116.379712
11624   1 2 0.0 73.332877 3.313751 117.491478
11625   1 2 0.0 74.089489 0.619243 117.935783
11626   1 2 0.0 71.690621 2.618209 120.490570
11627   1 2 0.0 75.945570 3.445896 117.392257
11628   1 2 0.0 77.486740 6.381522 115.476940
11629   1 1 0.0 66.961143 -1.381508 129.127479
11630   1 1 0.0 72.350552 -0.572293 123.869148
11631   1 1 0.0 66.494021 -0.771830 125.683680
11632   1 1 0.0 69.133874 -2.082943 124.068996
11633   1 2 0.0 68.583177 -0.218596 128.576382
11634   1 2 0.0 69.619944 -1.968166 122.156314
11635   1 2 0.0 71.198434 2.913870 123.478292
11636   1 2 0.0 68.039251 -1.012880 124.590058
11637   1 2 0.0 68.197351 -3.807130 125.034363
11638   1 2 0.0 66.285684 -1.338130 127.589150
11639   1 2 0.0 70.619023 -1.446938 124.490837
11640   1 2 0.0 72.756670 1.087539 122.575520
11641   1 1 0.0 60.805322 -4.224533 136.226059
11642   1 1 0.0 66.242477 -4.595882 130.967728
11643   1 1 0.0 60.480578 -3.528507 132.782260
11644   1 1 0.0 62.775815 -5.377759 131.167576
11645   1 2 0.0 62.639871 -3.438538 135.674962
11646   1 2 0.0 63.275198 -5.370439 129.254894
11647   1 2 0.0 65.868786 -0.943340 130.576872
11648   1 2 0.0 61.937541 -4.096926 131.688638
11649   1 2 0.0 61.489698 -6.859582 132.132943
11650   1 2 0.0 60.155086 -4.036597 134.687730
11651   1 2 0.0 64.363135 -5.076785 131.589417
11652   1 2 0.0 66.996784 -3.062586 129.674100
11653   1 1 0.0 54.181432 -5.674017 143.324639
11654   1 1 0.0 59.410772 -7.208475 138.066308
11655   1 1 0.0 54.014330 -4.924359 139.880840
11656   1 1 0.0 55.857068 -7.224829 138.266156
11657   1 2 0.0 56.142267 -5.301884 142.773542
11658   1 2 0.0 56.346293 -7.325310 136.353474
11659   1 2 0.0 59.833073 -3.561234 137.675452
11660   1 2 0.0 55.314545 -5.793430 138.787218
11661   1 2 0.0 54.281808 -8.394639 139.231523
11662   1 2 0.0 53.586982 -5.350357 141.786310
11663   1 2 0.0 57.471950 -7.273034 138.687997
11664   1 2 0.0 60.477813 -5.873785 136.772680
11665   1 1 0.0 47.400814 -5.661831 150.423219
11666   1 1 0.0 52.176545 -8.287274 145.164888
11667   1 1 0.0 47.399208 -4.893777 146.979420
11668   1 1 0.0 48.702833 -7.537336 145.364736
11669   1 2 0.0 49.395771 -5.721050 149.872122
11670   1 2 0.0 49.158905 -7.740895 143.452054
11671   1 2 0.0 53.374989 -4.816764 144.774032
11672   1 2 0.0 48.481561 -6.022650 145.885798
11673   1 2 0.0 46.912473 -8.340148 146.330103
11674   1 2 0.0 46.890091 -5.217660 148.884890
11675   1 2 0.0 50.269375 -7.932454 145.786577
11676   1 2 0.0 53.506167 -7.213924 143.871260
11677   1 1 0.0 40.782177 -4.188547 157.521799
11678   1 1 0.0 44.879826 -7.781572 152.263468
11679   1 1 0.0 40.946143 -3.438197 154.078000
11680   1 1 0.0 41.649381 -6.300591 152.463316
11681   1 2 0.0 42.717486 -4.676335 156.970702
11682   1 2 0.0 42.050862 -6.597661 150.550634
11683   1 2 0.0 46.798082 -4.650917 151.872612
11684   1 2 0.0 41.759760 -4.773813 152.984378
11685   1 2 0.0 39.728072 -6.698670 153.428683
11686   1 2 0.0 40.379186 -3.644742 155.983470
11687   1 2 0.0 43.093949 -7.024050 152.885157
11688   1 2 0.0 46.409532 -7.020012 150.969840
11689   1 1 0.0 34.636614 -1.323414 164.620379
11690   1 1 0.0 37.863581 -5.715139 159.362048
11691   1 1 0.0 34.958445 -0.626037 161.176580
11692   1 1 0.0 35.028243 -3.572725 159.561896
11693   1 2 0.0 36.421311 -2.216843 164.069282
11694   1 2 0.0 35.356263 -3.949342 157.649214
11695   1 2 0.0 40.411486 -3.071488 158.971192
11696   1 2 0.0 35.465084 -2.105617 160.082958
11697   1 2 0.0 33.066291 -3.547361 160.527263
11698   1 2 0.0 34.360298 -0.705535 163.082050
11699   1 2 0.0 36.282939 -4.590520 159.983737
11700   1 2 0.0 39.521471 -5.301164 158.068420
11701   1 1 0.0 29.252986 2.798899 171.718959
11702   1 1 0.0 31.457593 -2.185102 166.460628
11703   1 1 0.0 29.717555 3.410525 168.275160
11704   1 1 0.0 29.150630 0.518045 166.660476
11705   1 2 0.0 30.803185 1.541823 171.167862
11706   1 2 0.0 29.389772 0.079583 164.747794
11707   1 2 0.0 34.515388 -0.152714 166.069772
11708   1 2 0.0 29.893402 1.856524 167.181538
11709   1 2 0.0 27.240254 0.965660 167.625843
11710   1 2 0.0 29.116331 3.461811 170.180630
11711   1 2 0.0 30.156480 -0.746247 167.082317
11712   1 2 0.0 33.165742 -2.138171 165.167000
11713   1 1 0.0 24.884336 7.984632 178.817539
11714   1 1 0.0 25.962962 2.642617 173.559208
11715   1 1 0.0 25.469807 8.481759 175.373740
11716   1 1 0.0 24.292808 5.779442 173.759056
11717   1 2 0.0 26.127174 6.422994 178.266442
11718   1 2 0.0 24.431830 5.299744 171.846374
11719   1 2 0.0 29.386922 3.968213 173.168352
11720   1 2 0.0 25.306598 6.926379 174.280118
11721   1 2 0.0 22.523800 6.628268 174.724423
11722   1 2 0.0 24.893766 8.661417 177.279210
11723   1 2 0.0 25.002534 4.328077 174.180897
11724   1 2 0.0 27.641081 2.320298 172.265580
11725   1 1 0.0 21.736005 13.990041 185.916119
11726   1 1 0.0 21.637950 8.541101 180.657788
11727   1 1 0.0 22.414859 14.349301 182.472320
11728   1 1 0.0 20.683107 11.964164 180.857636
11729   1 2 0.0 22.613064 12.197243 185.365022
11730   1 2 0.0 20.715476 11.465777 178.944954
11731   1 2 0.0 25.267140 9.097600 180.266932
11732   1 2 0.0 21.920264 12.865651 181.378698
11733   1 2 0.0 19.138616 13.174305 181.823003
11734   1 2 0.0 21.891076 14.648888 184.377790
11735   1 2 0.0 21.063350 10.393946 181.279477
11736   1 2 0.0 23.207164 7.864683 179.364160
11737   1 1 0.0 19.955972 20.532855 193.014699
11738   1 1 0.0 18.685845 15.233106 187.756368
11739   1 1 0.0 20.696301 20.737363 189.570900
11740   1 1 0.0 18.491194 18.781513 187.956216
11741   1 2 0.0 20.426028 18.593163 192.463602
11742   1 2 0.0 18.415388 18.287862 186.043534
11743   1 2 0.0 22.349683 14.994349 187.365512
11744   1 2 0.0 19.893568 19.395177 188.477278
11745   1 2 0.0 17.243815 20.296089 188.921583
11746   1 2 0.0 20.249396 21.142796 191.476370
11747   1 2 0.0 18.524082 17.166246 188.378057
11748   1 2 0.0 20.072396 14.234381 186.462740
11749   1 1 0.0 19.627904 27.305542 200.113279
11750   1 1 0.0 17.245406 22.404087 194.854948
11751   1 1 0.0 20.394911 27.345685 196.669480
11752   1 1 0.0 17.820095 25.911054 195.054796
11753   1 2 0.0 19.668864 25.310127 199.562182
11754   1 2 0.0 17.639677 25.445343 193.142114
11755   1 2 0.0 20.771680 21.381297 194.464092
11756   1 2 0.0 19.321770 26.208051 195.575858
11757   1 2 0.0 16.928458 27.658875 196.020163
11758   1 2 0.0 20.045889 27.837909 198.574950
11759   1 2 0.0 17.504081 24.326660 195.476637
11760   1 2 0.0 18.384122 21.129999 193.561320
11761   1 1 0.0 20.767222 33.989769 1.889983
11762   1 1 0.0 17.384335 29.716990 201.953528
11763   1 1 0.0 21.524854 33.863660 203.768060
11764   1 1 0.0 18.701353 33.017678 202.153376
11765   1 2 0.0 20.377159 32.032421 1.338886
11766   1 2 0.0 18.424803 32.601797 200.240694
11767   1 2 0.0 20.607301 27.958241 201.562672
11768   1 2 0.0 20.231747 32.984050 202.674438
11769   1 2 0.0 18.207367 34.916592 203.118743
11770   1 2 0.0 21.290121 34.419538 0.351654
11771   1 2 0.0 18.051291 31.538628 202.575217
11772   1 2 0.0 18.221693 28.227424 200.659900
11773   1 1 0.0 23.320373 40.271356 8.988563
11774   1 1 0.0 19.096104 36.828086 3.730232
11775   1 1 0.0 24.033021 39.984924 5.544764
11776   1 1 0.0 21.093547 39.767355 3.930080
11777   1 2 0.0 22.517622 38.444077 8.437466
11778   1 2 0.0 20.733864 39.420850 2.017398
11779   1 2 0.0 21.864274 34.416045 3.339376
11780   1 2 0.0 22.580726 39.404681 4.451142
11781   1 2 0.0 21.020431 41.728108 4.895447
11782   1 2 0.0 23.923609 40.578329 7.450234
11783   1 2 0.0 20.139992 38.463169 4.351921
11784   1 2 0.0 19.592746 35.193057 2.436604
11785   1 1 0.0 27.167353 45.855053 16.087143
11786   1 1 0.0 22.300253 43.403135 10.828812
11787   1 1 0.0 27.801519 45.421760 12.643344
11788   1 1 0.0 24.884236 45.842831 11.028660
11789   1 2 0.0 25.989646 44.243729 15.536046
11790   1 2 0.0 24.458326 45.581989 9.115978
11791   1 2 0.0 24.483515 40.451173 10.437956
11792   1 2 0.0 26.258300 45.168157 11.549722
11793   1 2 0.0 25.235428 47.773261 11.994027
11794   1 2 0.0 27.822572 46.024800 14.548814
11795   1 2 0.0 23.672008 44.774808 11.450501
11796   1 2 0.0 22.432836 41.699493 9.535184
11797   1 1 0.0 32.127343 50.478410 23.185723
11798   1 1 0.0 26.846180 49.133091 17.927392
11799   1 1 0.0 32.653221 49.918621 19.741924
11800   1 1 0.0 29.895248 50.958540 18.127240
11801   1 2 0.0 30.630035 49.158778 22.634626
11802   1 2 0.0 29.423130 50.795623 16.214558
11803   1 2 0.0 28.341915 45.779959 17.536536
11804   1 2 0.0 31.091611 50.003579 18.648302
11805   1 2 0.0 30.654240 52.767913 19.092607
11806   1 2 0.0 32.803748 50.502951 21.647394
11807   1 2 0.0 28.481325 50.176882 18.549081
11808   1 2 0.0 26.608472 47.440912 16.633764
11809   1 1 0.0 37.967209 53.924115 30.284303
11810   1 1 0.0 32.520213 53.748629 25.025972
11811   1 1 0.0 38.360080 53.264143 26.840504
11812   1 1 0.0 35.891051 54.874032 25.225820
11813   1 2 0.0 36.220678 52.958202 29.733206
11814   1 2 0.0 35.394916 54.816695 23.313138
11815   1 2 0.0 33.258116 50.151935 24.635116
11816   1 2 0.0 36.853481 53.683668 25.746882
11817   1 2 0.0 37.022169 56.477300 26.191187
11818   1 2 0.0 38.633007 53.802299 28.745974
11819   1 2 0.0 34.341891 54.415477 25.647661
11820   1 2 0.0 31.923387 52.147450 23.732344
11821   1 1 0.0 44.412462 56.030212 37.382883
11822   1 1 0.0 39.055657 57.032807 32.124552
11823   1 1 0.0 44.653860 55.301077 33.939084
11824   1 1 0.0 42.589826 57.405265 32.324400
11825   1 2 0.0 42.498800 55.463418 36.831786
11826   1 2 0.0 42.092994 57.456205 30.411718
11827   1 2 0.0 39.001045 53.361604 31.733696
11828   1 2 0.0 43.273086 56.035451 32.845462
11829   1 2 0.0 44.039903 58.727072 33.289767
11830   1 2 0.0 45.036358 55.767763 35.844554
11831   1 2 0.0 40.978244 57.291368 32.746241
11832   1 2 0.0 38.127764 55.597888 30.830924
11833   1 1 0.0 49.830914 51.755366 43.777833
11834   1 1 0.0 45.125257 53.765653 38.938246
11835   1 1 0.0 50.188774 50.916502 40.331382
11836   1 1 0.0 48.529268 53.404202 39.012544
11837   1 2 0.0 48.109348 51.561226 43.158306
11838   1 2 0.0 48.232372 53.521566 37.108326
11839   1 2 0.0 45.088272 50.154307 37.952733
11840   1 2 0.0 49.046892 51.911618 39.350908
11841   1 2 0.0 49.896132 54.449890 40.093119
11842   1 2 0.0 50.460708 51.337383 42.244889
11843   1 2 0.0 46.948370 53.632805 39.490772
11844   1 2 0.0 44.314445 52.525223 37.470265
11845   1 1 0.0 55.529936 51.355521 50.876413
11846   1 1 0.0 51.368134 54.332744 46.036826
11847   1 1 0.0 55.698591 50.459245 47.429962
11848   1 1 0.0 54.614243 53.246143 46.111124
11849   1 2 0.0 53.806987 51.536982 50.256886
11850   1 2 0.0 54.349621 53.424736 44.206906
11851   1 2 0.0 50.553687 50.814241 45.051313
11852   1 2 0.0 54.798016 51.677076 46.449488
11853   1 2 0.0 56.174356 53.972664 47.191699
11854   1 2 0.0 56.054844 50.811625 49.343469
11855   1 2 0.0 53.119769 53.810094 46.589352
11856   1 2 0.0 50.309034 53.296215 44.568845
11857   1 1 0.0 61.008847 49.736798 57.974993
11858   1 1 0.0 57.586515 53.541020 53.135406
11859   1 1 0.0 60.980369 48.825237 54.528542
11860   1 1 0.0 60.522148 51.780341 53.209704
11861   1 2 0.0 59.365499 50.285331 57.355466
11862   1 2 0.0 60.302236 52.011770 51.305486
11863   1 2 0.0 56.032888 50.280739 52.149893
11864   1 2 0.0 60.363431 50.208543 53.548068
11865   1 2 0.0 62.202178 52.153547 54.290279
11866   1 2 0.0 61.404196 49.092555 56.442049
11867   1 2 0.0 59.184341 52.653134 53.687932
11868   1 2 0.0 56.328909 52.757112 51.667425
11869   1 1 0.0 66.010122 46.975282 65.073573
11870   1 1 0.0 63.488120 51.427693 60.233986
11871   1 1 0.0 65.785851 46.091281 61.627122
11872   1 1 0.0 65.975294 49.075694 60.308284
11873   1 2 0.0 64.523617 47.865104 64.454046
11874   1 2 0.0 65.810428 49.349081 58.404066
11875   1 2 0.0 61.268338 48.578877 59.248473
11876   1 2 0.0 65.481547 47.575042 60.646648
11877   1 2 0.0 67.696276 49.078042 61.388859
11878   1 2 0.0 66.257331 46.260973 63.540629
11879   1 2 0.0 64.857034 50.216304 60.786512
11880   1 2 0.0 62.091119 50.933252 58.766005
11881   1 1 0.0 70.298689 43.200772 72.172153
11882   1 1 0.0 68.795558 48.092096 67.332566
11883   1 1 0.0 69.889165 42.385882 68.725702
11884   1 1 0.0 70.717368 45.259328 67.406864
11885   1 2 0.0 69.038896 44.390059 71.552626
11886   1 2 0.0 70.615297 45.561822 65.502646
11887   1 2 0.0 66.013955 45.788647 66.347053
11888   1 2 0.0 69.911798 43.900358 67.745228
11889   1 2 0.0 72.398410 44.890708 68.487439
11890   1 2 0.0 70.386137 42.449971 70.639209
11891   1 2 0.0 69.871217 46.614143 67.885092
11892   1 2 0.0 67.324824 47.910362 65.864585
11893   1 1 0.0 73.672971 38.590680 79.270733
11894   1 1 0.0 73.259362 43.691012 74.431146
11895   1 1 0.0 73.097443 37.883204 75.824282
11896   1 1 0.0 74.525478 40.510622 74.505444
11897   1 2 0.0 72.699105 40.023532 78.651206
11898   1 2 0.0 74.491001 40.828005 72.601226
11899   1 2 0.0 70.046684 42.041199 73.445633
11900   1 2 0.0 73.445950 39.357209 74.843808
11901   1 2 0.0 76.087567 39.788361 75.586019
11902   1 2 0.0 73.596548 37.838677 77.737789
11903   1 2 0.0 73.991208 42.015963 74.983672
11904   1 2 0.0 71.784025 43.830527 72.963165
11905   1 1 0.0 75.974369 33.361694 86.369313
11906   1 1 0.0 76.669723 38.431303 81.529726
11907   1 1 0.0 75.259889 32.794884 82.922862
11908   1 1 0.0 77.220634 35.052779 81.604024
11909   1 2 0.0 75.332204 34.970763 85.749786
11910   1 2 0.0 77.255371 35.370134 79.699806
11911   1 2 0.0 73.176973 37.512672 80.544213
11912   1 2 0.0 75.917888 34.159137 81.942388
11913   1 2 0.0 78.590347 34.010825 82.684599
11914   1 2 0.0 75.737667 32.643834 84.836369
11915   1 2 0.0 77.023357 36.637890 82.082252
11916   1 2 0.0 75.259127 38.885510 80.061745
11917   1 1 0.0 77.094710 27.759591 93.467893
11918   1 1 0.0 78.866343 32.560192 88.628306
11919   1 1 0.0 76.274860 27.360089 90.021442
11920   1 1 0.0 78.676155 29.142333 88.702604
11921   1 2 0.0 76.814429 29.469246 92.848366
11922   1 2 0.0 78.778473 29.444743 86.798386
11923   1 2 0.0 75.257691 32.415920 87.642793
11924   1 2 0.0 77.211424 28.550465 89.040968
11925   1 2 0.0 79.789112 27.829660 89.783179
11926   1 2 0.0 76.708855 27.109616 91.934949
11927   1 2 0.0 78.825143 30.732709 89.180832
11928   1 2 0.0 77.586791 33.307741 87.160325
11929   1 1 0.0 76.981335 22.047684 100.566473
11930   1 1 0.0 79.745976 26.353635 95.726886
11931   1 1 0.0 76.094650 21.834268 97.120022
11932   1 1 0.0 78.823627 23.057091 95.801184
11933   1 2 0.0 77.076113 23.777568 99.946946
11934   1 2 0.0 78.988718 23.330342 93.896966
11935   1 2 0.0 76.191038 26.990504 94.741373
11936   1 2 0.0 77.265759 22.794817 96.139548
11937   1 2 0.0 79.627516 21.535400 96.881759
11938   1 2 0.0 76.464463 21.496146 99.033529
11939   1 2 0.0 79.311878 24.577981 96.279412
11940   1 2 0.0 78.657609 27.359390 94.258905
11941   1 1 0.0 75.639573 16.494451 107.665053
11942   1 1 0.0 79.267276 20.103360 102.825466
11943   1 1 0.0 74.727730 16.477152 104.218602
11944   1 1 0.0 77.656120 17.083077 102.899764
11945   1 2 0.0 76.104954 18.163253 107.045526
11946   1 2 0.0 77.876222 17.314326 100.995546
11947   1 2 0.0 75.933144 21.491435 101.839953
11948   1 2 0.0 76.078337 17.162725 103.238128
11949   1 2 0.0 78.113156 15.423890 103.980339
11950   1 2 0.0 75.015979 16.067273 106.132109
11951   1 2 0.0 78.460684 18.462995 103.377992
11952   1 2 0.0 78.421251 21.320047 101.357485
11953   1 1 0.0 73.132490 11.360908 114.763633
11954   1 1 0.0 77.452743 14.103146 109.924046
11955   1 1 0.0 72.238349 11.540539 111.317182
11956   1 1 0.0 75.228509 11.501087 109.998344
11957   1 2 0.0 73.946601 12.890190 114.144106
11958   1 2 0.0 75.493278 11.679463 108.094126
11959   1 2 0.0 74.496131 16.177184 108.938533
11960   1 2 0.0 73.704972 11.918913 110.336708
11961   1 2 0.0 75.317209 9.782391 111.078919
11962   1 2 0.0 72.431485 11.078168 113.230689
11963   1 2 0.0 76.311569 12.675171 110.476572
11964   1 2 0.0 76.888826 15.473577 108.456065
11965   1 1 0.0 69.577927 6.888346 121.862213
11966   1 1 0.0 74.387665 8.635021 117.022626
11967   1 1 0.0 68.743514 7.256464 118.415762
11968   1 1 0.0 71.654898 6.573489 117.096924
11969   1 2 0.0 70.702501 8.206227 121.242686
11970   1 2 0.0 71.951889 6.690609 115.192706
11971   1 2 0.0 71.947542 11.297536 116.037113
11972   1 2 0.0 70.257218 7.309853 117.435288
11973   1 2 0.0 71.371094 4.876068 118.177499
11974   1 2 0.0 68.832459 6.763334 120.329269
11975   1 2 0.0 72.965549 7.486555 117.575152
11976   1 2 0.0 74.132362 10.094783 115.554645
11977   1 1 0.0 65.142958 3.286989 128.960793
11978   1 1 0.0 70.216110 3.956001 124.121206
11979   1 1 0.0 64.407493 3.826291 125.514342
11980   1 1 0.0 67.103258 2.531894 124.195504
11981   1 2 0.0 66.525138 4.331525 128.341266
11982   1 2 0.0 67.418512 2.582253 122.291286
11983   1 2 0.0 68.407169 7.081848 123.135693
11984   1 2 0.0 65.897129 3.552187 124.533868
11985   1 2 0.0 66.460290 0.935531 125.276079
11986   1 2 0.0 64.388066 3.325581 127.427849
11987   1 2 0.0 68.579894 3.141026 124.673732
11988   1 2 0.0 70.281420 5.436480 122.653225
11989   1 1 0.0 60.036038 0.726109 136.059373
11990   1 1 0.0 65.134153 0.286014 131.219786
11991   1 1 0.0 59.434091 1.411248 132.612922
11992   1 1 0.0 61.787528 -0.433730 131.294084
11993   1 2 0.0 61.610858 1.448205 135.439846
11994   1 2 0.0 62.106226 -0.452500 129.389866
11995   1 2 0.0 64.041419 3.728269 130.234273
11996   1 2 0.0 60.829642 0.822533 131.632448
11997   1 2 0.0 60.815616 -1.854002 132.374659
11998   1 2 0.0 59.307206 0.926492 134.526429
11999   1 2 0.0 63.360743 -0.157164 131.772312
12000   1 2 0.0 65.517006 1.717624 129.751805
12001   1 1 0.0 54.497209 -0.673923 143.157953
12002   1 1 0.0 59.380659 -2.202440 138.318366
12003   1 1 0.0 54.057071 0.124847 139.711502
12004   1 1 0.0 55.957563 -2.183993 138.392664
12005   1 2 0.0 56.190646 -0.308209 142.538426
12006   1 2 0.0 56.264726 -2.271008 136.488446
12007   1 2 0.0 59.055494 1.394427 137.332853
12008   1 2 0.0 55.292943 -0.750806 138.731028
12009   1 2 0.0 54.702390 -3.361416 139.473239
12010   1 2 0.0 53.828692 -0.321170 141.625009
12011   1 2 0.0 57.553412 -2.252992 138.870892
12012   1 2 0.0 60.063061 -0.886989 136.850385
12013   1 1 0.0 48.786809 -0.847304 150.256533
12014   1 1 0.0 53.226060 -3.392398 145.416946
12015   1 1 0.0 48.529169 0.027555 146.810082
12016   1 1 0.0 49.887387 -2.636626 145.491244
12017   1 2 0.0 50.519269 -0.855160 149.637006
12018   1 2 0.0 50.168577 -2.787797 143.587026
12019   1 2 0.0 53.683746 0.190019 144.431433
12020   1 2 0.0 49.547272 -1.093880 145.829608
12021   1 2 0.0 48.407950 -3.515858 146.571819
12022   1 2 0.0 48.210030 -0.358759 148.723589
12023   1 2 0.0 51.430860 -3.047946 145.969472
12024   1 2 0.0 54.175935 -2.254936 143.948965
12025   1 1 0.0 43.173244 0.214117 157.355113
12026   1 1 0.0 46.959638 -3.227928 152.515526
12027   1 1 0.0 43.110212 1.123943 153.908662
12028   1 1 0.0 43.862315 -1.770354 152.589824
12029   1 2 0.0 44.863295 -0.166941 156.735586
12030   1 2 0.0 44.104316 -1.978575 150.685606
12031   1 2 0.0 48.178664 0.171655 151.530013
12032   1 2 0.0 43.862692 -0.190562 152.928188
12033   1 2 0.0 42.228152 -2.310069 153.670399
12034   1 2 0.0 42.715313 0.815490 155.822169
12035   1 2 0.0 45.280866 -2.504663 153.068052
12036   1 2 0.0 48.132340 -2.321918 151.047545
12037   1 1 0.0 37.920367 2.460450 164.453693
12038   1 1 0.0 40.875933 -1.716760 159.614106
12039   1 1 0.0 38.054905 3.362478 161.007242
12040   1 1 0.0 38.165543 0.374106 159.688404
12041   1 2 0.0 39.488572 1.724101 163.834166
12042   1 2 0.0 38.356981 0.118620 157.784186
12043   1 2 0.0 42.799001 1.340199 158.628593
12044   1 2 0.0 38.506394 1.916689 160.026768
12045   1 2 0.0 36.453463 0.199276 160.768979
12046   1 2 0.0 37.602808 3.146385 162.920749
12047   1 2 0.0 39.392495 -0.648677 160.166632
12048   1 2 0.0 42.216341 -1.084788 158.146125
12049   1 1 0.0 33.275078 5.786111 171.552273
12050   1 1 0.0 35.260896 1.070076 166.712686
12051   1 1 0.0 33.600863 6.637943 168.105822
12052   1 1 0.0 33.064836 3.695957 166.786984
12053   1 2 0.0 34.647728 4.729081 170.932746
12054   1 2 0.0 33.196711 3.405217 164.882766
12055   1 2 0.0 37.797617 3.640725 165.727173
12056   1 2 0.0 33.730140 5.128826 167.125348
12057   1 2 0.0 31.355312 3.894230 167.867559
12058   1 2 0.0 33.112817 6.524366 170.019329
12059   1 2 0.0 34.042518 2.432773 167.265212
12060   1 2 0.0 36.706008 1.398306 165.244705
12061   1 1 0.0 29.455718 10.034784 178.650853
12062   1 1 0.0 30.378450 5.001592 173.811266
12063   1 1 0.0 29.957438 10.796383 175.204402
12064   1 1 0.0 28.799940 8.039064 173.885564
12065   1 2 0.0 30.568295 8.706757 178.031326
12066   1 2 0.0 28.866054 7.726734 171.981346
12067   1 2 0.0 33.409590 6.965103 172.825753
12068   1 2 0.0 29.758425 9.294869 174.223928
12069   1 2 0.0 27.173325 8.601120 174.966139
12070   1 2 0.0 29.456383 10.790660 177.117909
12071   1 2 0.0 29.482399 6.594853 174.363792
12072   1 2 0.0 31.860341 5.010652 172.343285
12073   1 1 0.0 26.641810 15.006770 185.749433
12074   1 1 0.0 26.458083 9.892994 180.909846
12075   1 1 0.0 27.295880 15.642338 182.302982
12076   1 1 0.0 25.571317 13.199288 180.984144
12077   1 2 0.0 27.442017 13.470167 185.129906
12078   1 2 0.0 25.568564 12.880049 179.079926
12079   1 2 0.0 29.841170 11.157078 179.924333
12080   1 2 0.0 26.777933 14.219004 181.322508
12081   1 2 0.0 24.104067 14.098709 182.064719
12082   1 2 0.0 26.805368 15.744739 184.216489
12083   1 2 0.0 25.926476 11.641932 181.462372
12084   1 2 0.0 27.907100 9.582459 179.441865
12085   1 1 0.0 24.965612 20.468371 192.848013
12086   1 1 0.0 23.684064 15.514374 188.008426
12087   1 1 0.0 25.741292 20.948035 189.401562
12088   1 1 0.0 23.530723 18.934084 188.082724
12089   1 2 0.0 25.415840 18.795417 192.228486
12090   1 2 0.0 23.459230 18.622941 186.178506
12091   1 2 0.0 27.260084 16.019614 187.022913
12092   1 2 0.0 24.928755 19.669781 188.421088
12093   1 2 0.0 22.291801 20.128595 189.163299
12094   1 2 0.0 25.284377 21.153746 191.315069
12095   1 2 0.0 23.541888 17.336783 188.560952
12096   1 2 0.0 25.032099 14.898839 186.540445
12097   1 1 0.0 24.505913 26.162878 199.946593
12098   1 1 0.0 22.186778 21.601511 195.107006
12099   1 1 0.0 25.366742 26.464091 196.500142
12100   1 1 0.0 22.774071 24.973901 195.181304
12101   1 2 0.0 24.584998 24.432206 199.327066
12102   1 2 0.0 22.637199 24.685479 193.277086
12103   1 2 0.0 25.787648 21.324160 194.121493
12104   1 2 0.0 24.297807 25.390999 195.519668
12105   1 2 0.0 21.821711 26.407356 196.261879
12106   1 2 0.0 24.964901 26.763444 198.413649
12107   1 2 0.0 22.440717 23.411733 195.659532
12108   1 2 0.0 23.370471 20.709908 193.639025
12109   1 1 0.0 25.284319 31.822631 1.723297
12110   1 1 0.0 22.036604 27.868291 202.205586
12111   1 1 0.0 26.189836 31.931237 203.598722
12112   1 1 0.0 23.336924 31.034851 202.279884
12113   1 2 0.0 24.988545 30.115588 1.103770
12114   1 2 0.0 23.141108 30.782706 200.375666
12115   1 2 0.0 25.493073 26.821386 201.220073
12116   1 2 0.0 24.914745 31.113745 202.618248
12117   1 2 0.0 22.715890 32.639874 203.360459
12118   1 2 0.0 25.861956 32.310161 0.190353
12119   1 2 0.0 22.674721 29.581241 202.758112
12120   1 2 0.0 23.000317 26.742529 200.737605
12121   1 1 0.0 27.264243 37.181608 8.821877
12122   1 1 0.0 23.240599 34.020160 3.982290
12123   1 1 0.0 28.171885 37.092501 5.375426
12124   1 1 0.0 25.192829 36.832051 4.056588
12125   1 2 0.0 26.607511 35.578429 8.202350
12126   1 2 0.0 24.947272 36.628035 2.152370
12127   1 2 0.0 26.390203 32.252907 2.996777
12128   1 2 0.0 26.750572 36.569033 4.394952
12129   1 2 0.0 24.932310 38.533202 5.137163
12130   1 2 0.0 27.933379 37.533185 7.288933
12131   1 2 0.0 24.232901 35.555324 4.534816
12132   1 2 0.0 23.939035 32.713151 2.514309
12133   1 1 0.0 30.352622 41.987920 15.920457
12134   1 1 0.0 25.742173 39.767962 11.080870
12135   1 1 0.0 31.219729 41.705289 12.474006
12136   1 1 0.0 28.254552 42.093018 11.155168
12137   1 2 0.0 29.365801 40.563960 15.300930
12138   1 2 0.0 27.970795 41.946720 9.250950
12139   1 2 0.0 28.436872 37.363427 10.095357
12140   1 2 0.0 29.718999 41.500450 11.493532
12141   1 2 0.0 28.366794 43.810337 12.235743
12142   1 2 0.0 31.081806 42.187021 14.387513
12143   1 2 0.0 27.042018 41.053183 11.633396
12144   1 2 0.0 26.142503 38.341140 9.612889
12145   1 1 0.0 34.404295 46.015659 23.019037
12146   1 1 0.0 29.423744 44.841534 18.179450
12147   1 1 0.0 35.190110 45.552787 19.572586
12148   1 1 0.0 32.378183 46.570470 18.253748
12149   1 2 0.0 33.133768 44.837846 22.399510
12150   1 2 0.0 32.069564 46.488767 16.349530
12151   1 2 0.0 31.536879 41.912737 17.193937
12152   1 2 0.0 33.680502 45.676206 18.592112
12153   1 2 0.0 32.857910 48.223239 19.334323
12154   1 2 0.0 35.159253 46.052923 21.486093
12155   1 2 0.0 30.970036 45.816403 18.731976
12156   1 2 0.0 29.507151 43.361964 16.711469
12157   1 1 0.0 39.228821 49.075508 30.117617
12158   1 1 0.0 34.112268 49.002403 25.278030
12159   1 1 0.0 39.896408 48.454153 26.671166
12160   1 1 0.0 37.369901 50.053955 25.352328
12161   1 2 0.0 37.734307 48.199204 29.498090
12162   1 2 0.0 37.050926 50.040687 23.448110
12163   1 2 0.0 35.544516 45.687007 24.292517
12164   1 2 0.0 38.448878 48.900027 25.690692
12165   1 2 0.0 38.194565 51.564489 26.432903
12166   1 2 0.0 39.974067 48.949185 28.584673
12167   1 2 0.0 35.832328 49.621099 25.830556
12168   1 2 0.0 33.874833 47.539629 23.810049
12169   1 1 0.0 44.599434 51.023646 37.216197
12170   1 1 0.0 39.587372 52.054999 32.376610
12171   1 1 0.0 45.117415 50.273013 33.769746
12172   1 1 0.0 42.995080 52.379740 32.450908
12173   1 2 0.0 42.951179 50.490040 36.596670
12174   1 2 0.0 42.680741 52.435531 30.546690
12175   1 2 0.0 40.271413 48.508835 31.391097
12176   1 2 0.0 43.800000 51.020386 32.789272
12177   1 2 0.0 44.125919 53.677040 33.531483
12178   1 2 0.0 45.299941 50.739674 35.683253
12179   1 2 0.0 41.400351 52.288440 32.929136
12180   1 2 0.0 39.040254 50.677775 30.908629
12181   1 1 0.0 50.042618 46.603056 42.676756
12182   1 1 0.0 45.634880 48.744619 38.314741
12183   1 1 0.0 50.400152 45.784873 39.477179
12184   1 1 0.0 48.637157 48.332898 38.500593
12185   1 2 0.0 48.741109 46.403513 41.856726
12186   1 2 0.0 48.407167 48.451911 36.707400
12187   1 2 0.0 46.547675 45.120304 36.555739
12188   1 2 0.0 49.303316 46.811492 38.630779
12189   1 2 0.0 49.641275 49.396784 39.734162
12190   1 2 0.0 50.577281 46.197159 41.302643
12191   1 2 0.0 47.239380 48.579780 38.891163
12192   1 2 0.0 45.209202 47.521968 36.672586
12193   1 1 0.0 54.626219 46.278670 49.775336
12194   1 1 0.0 50.783627 49.319876 45.413321
12195   1 1 0.0 54.799013 45.402658 46.575759
12196   1 1 0.0 53.626611 48.270769 45.599173
12197   1 2 0.0 53.312292 46.364322 48.955306
12198   1 2 0.0 53.427676 48.436554 43.805980
12199   1 2 0.0 50.893844 45.584008 43.654319
12200   1 2 0.0 53.949215 46.641545 45.729359
12201   1 2 0.0 54.836423 49.093241 46.832742
12202   1 2 0.0 55.060837 45.767080 48.401223
12203   1 2 0.0 52.314893 48.813103 45.989743
12204   1 2 0.0 50.104443 48.217703 43.771166
12205   1 1 0.0 59.032187 44.974033 56.873916
12206   1 1 0.0 55.935353 48.771936 52.511901
12207   1 1 0.0 59.012119 44.081368 53.674339
12208   1 1 0.0 58.485415 47.134754 52.697753
12209   1 2 0.0 57.767599 45.340855 56.053886
12210   1 2 0.0 58.326886 47.339518 50.904560
12211   1 2 0.0 55.237812 45.100112 50.752899
12212   1 2 0.0 58.449301 45.474291 52.827939
12213   1 2 0.0 59.844058 47.677153 53.931322
12214   1 2 0.0 59.346330 44.380795 55.499803
12215   1 2 0.0 57.321410 47.947049 53.088323
12216   1 2 0.0 55.034586 47.842046 50.869746
12217   1 1 0.0 63.053427 42.750466 63.972496
12218   1 1 0.0 60.847912 47.126554 59.610481
12219   1 1 0.0 62.841440 41.883105 60.772919
12220   1 1 0.0 62.985193 44.978249 59.796333
12221   1 2 0.0 61.897618 43.381216 63.152466
12222   1 2 0.0 62.874520 45.212368 58.003140
12223   1 2 0.0 59.375399 43.691360 57.851479
12224   1 2 0.0 62.592058 43.364592 59.926519
12225   1 2 0.0 64.428805 45.215082 61.029902
12226   1 2 0.0 63.232331 42.103465 62.598383
12227   1 2 0.0 62.023612 46.022325 60.186903
12228   1 2 0.0 59.767901 46.412654 57.968326
12229   1 1 0.0 66.500932 39.712483 71.071076
12230   1 1 0.0 65.290400 44.461068 66.709061
12231   1 1 0.0 66.106990 38.911194 67.871499
12232   1 1 0.0 66.914441 41.902617 66.894913
12233   1 2 0.0 65.508227 40.577514 70.251046
12234   1 2 0.0 66.856828 42.155085 65.101720
12235   1 2 0.0 63.112127 41.423967 64.950059
12236   1 2 0.0 66.182764 40.411613 67.025099
12237   1 2 0.0 68.375169 41.822750 68.128482
12238   1 2 0.0 66.536187 39.042129 69.696963
12239   1 2 0.0 66.200482 43.129399 67.285483
12240   1 2 0.0 64.081909 43.996713 65.066906
12241   1 1 0.0 69.212658 36.002878 78.169656
12242   1 1 0.0 69.054008 40.900763 73.807641
12243   1 1 0.0 68.655277 35.305324 74.970079
12244   1 1 0.0 70.088475 38.052419 73.993493
12245   1 2 0.0 68.429718 37.061530 77.349626
12246   1 2 0.0 70.086628 38.311371 72.200300
12247   1 2 0.0 66.272360 38.404507 72.048639
12248   1 2 0.0 69.052647 36.754150 74.123679
12249   1 2 0.0 71.497661 37.659608 75.227062
12250   1 2 0.0 69.102607 35.340680 76.795543
12251   1 2 0.0 69.655696 39.404245 74.384063
12252   1 2 0.0 67.773839 40.707780 72.165486
12253   1 1 0.0 71.061146 31.796012 85.268236
12254   1 1 0.0 71.961835 36.612983 80.906221
12255   1 1 0.0 70.366525 31.234981 82.068659
12256   1 1 0.0 72.358105 33.608627 81.092073
12257   1 2 0.0 70.524771 32.998527 84.448206
12258   1 2 0.0 72.412112 33.861891 79.298880
12259   1 2 0.0 68.707558 34.774904 79.147219
12260   1 2 0.0 71.066812 32.564114 81.222259
12261   1 2 0.0 73.649513 32.921334 82.325642
12262   1 2 0.0 70.810963 31.173095 83.894123
12263   1 2 0.0 72.226847 35.021957 81.482643
12264   1 2 0.0 70.670159 36.700442 79.264066
12265   1 1 0.0 71.959513 27.289620 92.366816
12266   1 1 0.0 73.877206 31.799265 88.004801
12267   1 1 0.0 71.160301 26.891481 89.167239
12268   1 1 0.0 73.616653 28.780111 88.190653
12269   1 2 0.0 71.694914 28.579476 91.546786
12270   1 2 0.0 73.723976 29.015783 86.397460
12271   1 2 0.0 70.303259 30.705758 86.245799
12272   1 2 0.0 72.130590 28.038450 88.320839
12273   1 2 0.0 74.729583 27.830641 89.424222
12274   1 2 0.0 71.580956 26.735263 90.992703
12275   1 2 0.0 73.793087 30.188515 88.581223
12276   1 2 0.0 72.634736 32.163056 86.362646
12277   1 1 0.0 71.865532 22.695516 99.465396
12278   1 1 0.0 74.710093 26.685870 95.103381
12279   1 1 0.0 70.999295 22.478983 96.265819
12280   1 1 0.0 73.804964 23.793825 95.289233
12281   1 2 0.0 71.885147 24.012086 98.645366
12282   1 2 0.0 73.960557 24.000828 93.496040
12283   1 2 0.0 70.984462 26.388332 93.344379
12284   1 2 0.0 72.193980 23.389876 95.419419
12285   1 2 0.0 74.687105 22.626806 96.522802
12286   1 2 0.0 71.376395 22.235775 98.091283
12287   1 2 0.0 74.280795 25.131104 95.679803
12288   1 2 0.0 73.575228 27.308893 93.461226
12289   1 1 0.0 70.783622 18.229634 106.563976
12290   1 1 0.0 74.421347 21.513139 102.201961
12291   1 1 0.0 69.891074 18.204885 103.364399
12292   1 1 0.0 72.914185 18.884138 102.387813
12293   1 2 0.0 71.086527 19.511036 105.743946
12294   1 2 0.0 73.110736 19.052742 100.594620
12295   1 2 0.0 70.719147 22.025556 100.442959
12296   1 2 0.0 71.254001 18.836888 102.517999
12297   1 2 0.0 73.524075 17.554424 103.621382
12298   1 2 0.0 70.206895 17.886119 105.189863
12299   1 2 0.0 73.667050 20.087436 102.778383
12300   1 2 0.0 73.447430 22.366110 100.559806
12301   1 1 0.0 68.764634 14.101885 113.662556
12302   1 1 0.0 73.024541 16.524206 109.300541
12303   1 1 0.0 67.887729 14.270082 110.462979
12304   1 1 0.0 70.986188 14.281820 109.486393
12305   1 2 0.0 69.336593 15.287888 112.842526
12306   1 2 0.0 71.214457 14.404100 107.693200
12307   1 2 0.0 69.519786 17.822492 107.541539
12308   1 2 0.0 69.354837 14.593489 109.616579
12309   1 2 0.0 71.295159 12.851909 110.719962
12310   1 2 0.0 68.127425 13.890741 112.288443
12311   1 2 0.0 71.980698 15.294578 109.876963
12312   1 2 0.0 72.257348 17.567034 107.658386
12313   1 1 0.0 65.903468 10.506283 120.761136
12314   1 1 0.0 70.585328 11.953565 116.399121
12315   1 1 0.0 65.083421 10.859521 117.561559
12316   1 1 0.0 68.111592 10.203191 116.584973
12317   1 2 0.0 66.717597 11.541143 119.941106
12318   1 2 0.0 68.360851 10.273400 114.791780
12319   1 2 0.0 67.442752 13.976698 114.640119
12320   1 2 0.0 66.585752 10.859131 116.715159
12321   1 2 0.0 68.105122 8.740296 117.818542
12322   1 2 0.0 65.235727 10.437435 119.387023
12323   1 2 0.0 69.301003 10.977808 116.975543
12324   1 2 0.0 70.060919 13.137233 114.756966
12325   1 1 0.0 62.334605 7.611832 127.859716
12326   1 1 0.0 67.218359 8.016049 123.497701
12327   1 1 0.0 61.609962 8.133509 124.660139
12328   1 1 0.0 64.425511 6.839960 123.683553
12329   1 2 0.0 63.352637 8.446907 127.039686
12330   1 2 0.0 64.684045 6.854798 121.890360
12331   1 2 0.0 64.585670 10.668935 121.738699
12332   1 2 0.0 63.076901 7.809339 123.813739
12333   1 2 0.0 64.103905 5.412839 124.917122
12334   1 2 0.0 61.667719 7.688516 126.485603
12335   1 2 0.0 65.753918 7.340026 124.074123
12336   1 2 0.0 66.961383 9.284922 121.855546
12337   1 1 0.0 58.225792 5.554580 134.958296
12338   1 1 0.0 63.081890 4.896732 130.596281
12339   1 1 0.0 57.630613 6.220174 131.758719
12340   1 1 0.0 60.101203 4.350208 130.782133
12341   1 2 0.0 59.399878 6.150619 134.138266
12342   1 2 0.0 60.356858 4.308977 128.988940
12343   1 2 0.0 61.082833 8.054678 128.837279
12344   1 2 0.0 58.993211 5.587462 130.912319
12345   1 2 0.0 59.479576 3.025940 132.015702
12346   1 2 0.0 57.591106 5.773191 133.584183
12347   1 2 0.0 61.506166 4.552219 131.172703
12348   1 2 0.0 63.104425 6.191169 128.954126
12349   1 1 0.0 53.770156 4.431222 142.056876
12350   1 1 0.0 58.370346 2.742230 137.694861
12351   1 1 0.0 53.332415 5.209449 138.857299
12352   1 1 0.0 55.341921 2.850960 137.880713
12353   1 2 0.0 55.045110 4.760210 141.236846
12354   1 2 0.0 55.582682 2.755598 136.087520
12355   1 2 0.0 57.098883 6.256805 135.935859
12356   1 2 0.0 54.526626 4.297935 138.010899
12357   1 2 0.0 54.449492 1.691789 139.114282
12358   1 2 0.0 53.197502 4.781486 140.682763
12359   1 2 0.0 56.757404 2.745419 138.271283
12360   1 2 0.0 58.671334 4.001389 136.052706
12361   1 1 0.0 49.177123 4.294561 149.155456
12362   1 1 0.0 53.305184 1.653812 144.793441
12363   1 1 0.0 48.917396 5.148842 145.955879
12364   1 1 0.0 50.371365 2.412684 144.979293
12365   1 2 0.0 50.493018 4.341034 148.335426
12366   1 2 0.0 50.585915 2.267673 143.186100
12367   1 2 0.0 52.821076 5.359820 143.034439
12368   1 2 0.0 49.887089 4.001369 145.109479
12369   1 2 0.0 49.250081 1.473095 146.212862
12370   1 2 0.0 48.693417 4.760013 147.781343
12371   1 2 0.0 51.730836 2.004554 145.369863
12372   1 2 0.0 53.870477 2.818509 143.151286
12373   1 1 0.0 44.662579 5.151019 156.254036
12374   1 1 0.0 48.124481 1.682636 151.892021
12375   1 1 0.0 44.593074 6.041200 153.054459
12376   1 1 0.0 45.423166 3.055981 152.077873
12377   1 2 0.0 45.957565 4.912793 155.434006
12378   1 2 0.0 45.601420 2.868138 150.284680
12379   1 2 0.0 48.450483 5.405884 150.133019
12380   1 2 0.0 45.292670 4.711703 152.208059
12381   1 2 0.0 44.125729 2.380137 153.311442
12382   1 2 0.0 44.290557 5.709783 154.879923
12383   1 2 0.0 46.662725 2.364444 152.468443
12384   1 2 0.0 48.927509 2.698127 150.249866
12385   1 1 0.0 40.438720 6.960340 163.352616
12386   1 1 0.0 43.071744 2.827347 158.990601
12387   1 1 0.0 40.562704 7.844581 160.153039
12388   1 1 0.0 40.729901 4.750614 159.176453
12389   1 2 0.0 41.651929 6.448613 162.532586
12390   1 2 0.0 40.863482 4.528768 157.383260
12391   1 2 0.0 44.192533 6.392833 157.231599
12392   1 2 0.0 40.959320 6.395549 159.306639
12393   1 2 0.0 39.317296 4.370282 160.410022
12394   1 2 0.0 40.195868 7.586152 161.978503
12395   1 2 0.0 41.791287 3.808175 159.567023
12396   1 2 0.0 44.074762 3.645901 157.348446
12397   1 1 0.0 36.704079 9.637482 170.451196
12398   1 1 0.0 38.384465 5.034141 166.089181
12399   1 1 0.0 37.015725 10.474221 167.251619
12400   1 1 0.0 36.512169 7.416931 166.275033
12401   1 2 0.0 37.778487 8.876306 169.631166
12402   1 2 0.0 36.594797 7.171509 164.481840
12403   1 2 0.0 40.247361 8.274276 164.330179
12404   1 2 0.0 37.090719 8.973763 166.405219
12405   1 2 0.0 35.050792 7.349987 167.508602
12406   1 2 0.0 36.601812 10.300927 169.077083
12407   1 2 0.0 37.345493 6.267887 166.665603
12408   1 2 0.0 39.540329 5.617284 164.447026
12409   1 1 0.0 33.634196 13.056611 177.549776
12410   1 1 0.0 34.282961 8.199292 173.187761
12411   1 1 0.0 34.118854 13.806518 174.350199
12412   1 1 0.0 32.968215 10.929608 173.373613
12413   1 2 0.0 34.519302 12.081764 176.729746
12414   1 2 0.0 32.996006 10.672145 171.580420
12415   1 2 0.0 36.800402 10.961781 171.428759
12416   1 2 0.0 33.868701 12.325160 173.503799
12417   1 2 0.0 31.526753 11.179198 174.607182
12418   1 2 0.0 33.677320 13.726505 176.175663
12419   1 2 0.0 33.534308 9.627967 173.764183
12420   1 2 0.0 35.537341 8.519614 171.545606
12421   1 1 0.0 31.373363 17.057019 184.648356
12422   1 1 0.0 30.960013 12.174029 180.286341
12423   1 1 0.0 32.008253 17.684847 181.448779
12424   1 1 0.0 30.264613 15.123538 180.472193
12425   1 2 0.0 32.027565 15.914320 183.828326
12426   1 2 0.0 30.236262 14.866136 178.679000
12427   1 2 0.0 34.013673 14.329028 178.527339
12428   1 2 0.0 31.444712 16.292217 180.602379
12429   1 2 0.0 28.910821 15.677932 181.705762
12430   1 2 0.0 31.559851 17.701875 183.274243
12431   1 2 0.0 30.536867 13.730480 180.862763
12432   1 2 0.0 32.253951 12.216475 178.644186
12433   1 1 0.0 30.027845 21.450675 191.746936
12434   1 1 0.0 28.571809 16.771529 187.384921
12435   1 1 0.0 30.783127 21.926914 188.547359
12436   1 1 0.0 28.528441 19.801595 187.570773
12437   1 2 0.0 30.420393 20.193835 190.926906
12438   1 2 0.0 28.445280 19.556352 185.777580
12439   1 2 0.0 32.018157 18.217745 185.625919
12440   1 2 0.0 29.932684 20.688469 187.700959
12441   1 2 0.0 27.325950 20.634734 188.804342
12442   1 2 0.0 30.348933 22.040183 190.372823
12443   1 2 0.0 28.494060 18.382599 187.961343
12444   1 2 0.0 29.844486 16.534102 185.742766
12445   1 1 0.0 29.660886 26.031064 198.845516
12446   1 1 0.0 27.230602 21.775695 194.483501
12447   1 1 0.0 30.501058 26.333330 195.645939
12448   1 1 0.0 27.841304 24.743897 194.669353
12449   1 2 0.0 29.773330 24.719158 198.025486
12450   1 2 0.0 27.707242 24.522341 192.876160
12451   1 2 0.0 30.907650 22.445154 192.724499
12452   1 2 0.0 29.403688 25.307281 194.799539
12453   1 2 0.0 26.846635 25.816622 195.902922
12454   1 2 0.0 30.101481 26.537516 197.471403
12455   1 2 0.0 27.501904 23.365660 195.059923
12456   1 2 0.0 28.422198 21.269556 192.841346
12457   1 1 0.0 30.289734 30.582897 0.622220
12458   1 1 0.0 26.999432 26.951318 201.582081
12459   1 1 0.0 31.175306 30.696981 202.744519
12460   1 1 0.0 28.235500 29.718143 201.767933
12461   1 2 0.0 30.116788 29.277588 205.124066
12462   1 2 0.0 28.056838 29.530688 199.974740
12463   1 2 0.0 30.734348 26.812553 199.823079
12464   1 2 0.0 29.882588 29.931555 201.898119
12465   1 2 0.0 27.495404 30.980032 203.001502
12466   1 2 0.0 30.829126 30.982488 204.569983
12467   1 2 0.0 27.607033 28.445445 202.158503
12468   1 2 0.0 28.053938 26.200258 199.939926
12469   1 1 0.0 31.884831 34.892223 7.720800
12470   1 1 0.0 27.889164 32.055130 3.358785
12471   1 1 0.0 32.774179 34.812765 4.521223
12472   1 1 0.0 29.692499 34.490528 3.544637
12473   1 2 0.0 31.434625 33.654865 6.900770
12474   1 2 0.0 29.477635 34.345984 1.751444
12475   1 2 0.0 31.506397 31.114662 1.599783
12476   1 2 0.0 31.346874 34.343939 3.674823
12477   1 2 0.0 29.241764 35.882270 4.778206
12478   1 2 0.0 32.497668 35.166171 6.346687
12479   1 2 0.0 28.804506 33.383190 3.935207
12480   1 2 0.0 28.757017 31.094449 1.716630
12481   1 1 0.0 34.371203 38.756493 14.819380
12482   1 1 0.0 29.857979 36.847237 10.457365
12483   1 1 0.0 35.222525 38.487226 11.619803
12484   1 1 0.0 32.143820 38.836738 10.643217
12485   1 2 0.0 33.664898 37.645244 13.999350
12486   1 2 0.0 31.902852 38.741899 8.850024
12487   1 2 0.0 33.187509 35.149272 8.698363
12488   1 2 0.0 33.727721 38.337037 10.773403
12489   1 2 0.0 32.003631 40.292916 11.876786
12490   1 2 0.0 35.028680 38.891922 13.445267
12491   1 2 0.0 31.038038 37.946807 11.033787
12492   1 2 0.0 30.498387 35.722090 8.815210
12493   1 1 0.0 37.631984 41.994075 21.917960
12494   1 1 0.0 32.813337 41.102396 17.555945
12495   1 1 0.0 38.405266 41.547656 18.718383
12496   1 1 0.0 35.474242 42.552488 17.741797
12497   1 2 0.0 36.702777 41.061167 21.097930
12498   1 2 0.0 35.218498 42.511812 15.948604
12499   1 2 0.0 35.698667 38.726742 15.796943
12500   1 2 0.0 36.913222 41.723162 17.871983
12501   1 2 0.0 35.651189 44.004657 18.975366
12502   1 2 0.0 38.303198 41.984619 20.543847
12503   1 2 0.0 34.202646 41.921794 18.132367
12504   1 2 0.0 33.196198 39.865669 15.913790
12505   1 1 0.0 41.513908 44.452793 29.016540
12506   1 1 0.0 36.616328 44.620602 24.654525
12507   1 1 0.0 42.172802 43.850205 25.816963
12508   1 1 0.0 39.527227 45.463127 24.840377
12509   1 2 0.0 40.405475 43.742077 28.196510
12510   1 2 0.0 39.268727 45.478527 23.047184
12511   1 2 0.0 38.921839 41.678923 22.895523
12512   1 2 0.0 40.753649 44.343157 24.970563
12513   1 2 0.0 40.012992 46.843033 26.073946
12514   1 2 0.0 42.167309 44.298897 27.642427
12515   1 2 0.0 38.149586 45.121315 25.230947
12516   1 2 0.0 36.723647 43.330425 23.012370
12517   1 1 0.0 45.834513 46.017081 36.115120
12518   1 1 0.0 41.088200 47.236492 31.753105
12519   1 1 0.0 46.348051 45.286647 32.915543
12520   1 1 0.0 44.112274 47.431848 31.938957
12521   1 2 0.0 44.598954 45.561961 35.295090
12522   1 2 0.0 43.863167 47.502598 30.145764
12523   1 2 0.0 42.705526 43.867054 29.994103
12524   1 2 0.0 45.068493 46.073876 32.069143
12525   1 2 0.0 44.884025 48.674630 33.172526
12526   1 2 0.0 46.439390 45.725978 34.741007
12527   1 2 0.0 42.693340 47.394983 32.329527
12528   1 2 0.0 40.914934 45.953505 30.110950
12529   1 1 0.0 49.092855 61.964364 46.237860
12530   1 1 0.0 44.372953 63.571306 39.939468
12531   1 1 0.0 48.564198 61.244405 43.108149
12532   1 1 0.0 47.590078 63.446765 40.670421
12533   1 2 0.0 46.888672 61.702929 45.698652
12534   1 2 0.0 46.889154 63.562947 38.789957
12535   1 2 0.0 42.018346 60.089897 40.878883
12536   1 2 0.0 47.486938 62.091045 41.717152
12537   1 2 0.0 49.884970 64.442678 41.258361
12538   1 2 0.0 49.387819 61.641572 44.869206
12539   1 2 0.0 46.203031 63.551405 40.822527
12540   1 2 0.0 42.458192 62.335785 39.125120
12541   1 1 0.0 57.009504 61.483662 53.336440
12542   1 1 0.0 52.746860 64.070090 47.038048
12543   1 1 0.0 56.338103 60.894561 50.206729
12544   1 1 0.0 55.861537 63.255109 47.769001
12545   1 2 0.0 54.800777 61.703426 52.797232
12546   1 2 0.0 55.202126 63.519626 45.888537
12547   1 2 0.0 49.697264 61.177973 47.977463
12548   1 2 0.0 55.468631 61.953480 48.815732
12549   1 2 0.0 58.317139 63.733013 48.356941
12550   1 2 0.0 57.227966 61.104885 51.967786
12551   1 2 0.0 54.529640 63.656231 47.921107
12552   1 2 0.0 50.610815 63.276282 46.223700
12553   1 1 0.0 64.636498 59.308032 60.435020
12554   1 1 0.0 61.031469 62.752376 54.136628
12555   1 1 0.0 63.853911 58.877479 57.305309
12556   1 1 0.0 63.897299 61.285262 54.867581
12557   1 2 0.0 62.527044 59.998664 59.895812
12558   1 2 0.0 63.310394 61.685681 52.987117
12559   1 2 0.0 57.430223 60.585488 55.076043
12560   1 2 0.0 63.233095 60.098903 55.914312
12561   1 2 0.0 66.398190 61.222693 55.455521
12562   1 2 0.0 64.768191 58.891073 59.066366
12563   1 2 0.0 62.683154 61.964012 55.019687
12564   1 2 0.0 58.774539 62.437593 53.322280
12565   1 1 0.0 71.615347 55.539734 67.533600
12566   1 1 0.0 68.837379 59.680100 61.235208
12567   1 1 0.0 70.758357 55.287965 64.403889
12568   1 1 0.0 71.319660 57.629811 61.966161
12569   1 2 0.0 69.704315 56.668772 66.994392
12570   1 2 0.0 70.832849 58.147311 60.085697
12571   1 2 0.0 64.853752 58.340291 62.174623
12572   1 2 0.0 70.415377 56.614485 63.012892
12573   1 2 0.0 73.748292 57.029711 62.554101
12574   1 2 0.0 71.654080 55.104191 66.164946
12575   1 2 0.0 70.280336 58.554287 62.118267
12576   1 2 0.0 66.565647 59.859136 60.420860
12577   1 1 0.0 77.618026 50.355888 74.632180
12578   1 1 0.0 75.797691 54.997668 68.333788
12579   1 1 0.0 76.726914 50.294738 71.502469
12580   1 1 0.0 77.779749 52.460573 69.064741
12581   1 2 0.0 75.995240 51.870265 74.092972
12582   1 2 0.0 77.415912 53.070831 67.184277
12583   1 2 0.0 71.618924 54.547913 69.273203
12584   1 2 0.0 76.677891 51.664003 70.111472
12585   1 2 0.0 80.021968 51.351149 69.652681
12586   1 2 0.0 77.561978 49.922233 73.263526
12587   1 2 0.0 76.964097 53.587321 69.216847
12588   1 2 0.0 73.617935 55.662109 67.519440
12589   1 1 0.0 82.362391 44.000150 81.730760
12590   1 1 0.0 81.585251 48.925167 75.432368
12591   1 1 0.0 81.479042 44.132493 78.601049
12592   1 1 0.0 82.973923 46.020516 76.163321
12593   1 2 0.0 81.104127 45.828686 81.191552
12594   1 2 0.0 82.750162 46.694848 74.282857
12595   1 2 0.0 77.407757 49.386605 76.371783
12596   1 2 0.0 81.726280 45.480144 77.210052
12597   1 2 0.0 84.924340 44.453914 76.751261
12598   1 2 0.0 82.214198 43.588766 80.362106
12599   1 2 0.0 82.420281 47.296577 76.315427
12600   1 2 0.0 79.599924 50.043782 74.618020
12601   1 1 0.0 85.625444 36.771257 88.829340
12602   1 1 0.0 85.928026 41.748022 82.530948
12603   1 1 0.0 84.791378 37.090872 85.699629
12604   1 1 0.0 86.658042 38.612342 83.261901
12605   1 2 0.0 84.790845 38.828006 88.290132
12606   1 2 0.0 86.584873 39.319053 81.381437
12607   1 2 0.0 81.948161 43.098965 83.470363
12608   1 2 0.0 85.323257 38.353566 84.308632
12609   1 2 0.0 88.224981 36.662196 83.849841
12610   1 2 0.0 85.392071 36.401480 87.460686
12611   1 2 0.0 86.392433 39.977737 83.414007
12612   1 2 0.0 84.230446 43.268232 81.716600
12613   1 1 0.0 87.253813 29.008988 95.927920
12614   1 1 0.0 88.621895 33.803578 89.629528
12615   1 1 0.0 86.508234 29.500853 92.798209
12616   1 1 0.0 88.658941 30.584256 90.360481
12617   1 2 0.0 86.882106 31.197276 95.388712
12618   1 2 0.0 88.739805 31.290127 88.480017
12619   1 2 0.0 85.026722 35.980528 90.568943
12620   1 2 0.0 87.299753 30.619239 91.407212
12621   1 2 0.0 89.768752 28.342228 90.948421
12622   1 2 0.0 86.946229 28.698199 94.559266
12623   1 2 0.0 88.693849 31.974807 90.512587
12624   1 2 0.0 87.291852 35.653931 88.815180
12625   1 1 0.0 87.170960 21.078191 103.026500
12626   1 1 0.0 89.540238 25.465247 96.728108
12627   1 1 0.0 86.548911 21.719186 99.896789
12628   1 1 0.0 88.882572 22.313599 97.459061
12629   1 2 0.0 87.279616 23.295163 102.487292
12630   1 2 0.0 89.113668 22.985453 95.578597
12631   1 2 0.0 86.498741 28.365881 97.667523
12632   1 2 0.0 87.562867 22.640698 98.505792
12633   1 2 0.0 89.483091 19.885072 98.047001
12634   1 2 0.0 86.803622 20.840998 101.657846
12635   1 2 0.0 89.216357 23.663947 97.611167
12636   1 2 0.0 88.640247 27.558770 95.913760
12637   1 1 0.0 85.380778 13.351635 110.125080
12638   1 1 0.0 88.639890 17.124954 103.826688
12639   1 1 0.0 84.911498 14.111633 106.995369
12640   1 1 0.0 87.318426 14.189117 104.557641
12641   1 2 0.0 85.964691 15.493088 109.585872
12642   1 2 0.0 87.688891 14.795375 102.677177
12643   1 2 0.0 86.295028 20.612933 104.766103
12644   1 2 0.0 86.100233 14.792956 105.604372
12645   1 2 0.0 87.381426 11.688237 105.145581
12646   1 2 0.0 84.970952 13.199187 108.756426
12647   1 2 0.0 87.935398 15.435791 104.709747
12648   1 2 0.0 88.212254 19.363245 103.012340
12649   1 1 0.0 81.967412 6.192492 117.223660
12650   1 1 0.0 85.963170 9.174716 110.925268
12651   1 1 0.0 81.672959 7.035769 114.093949
12652   1 1 0.0 84.040019 6.592682 111.656221
12653   1 2 0.0 82.999137 8.157769 116.684452
12654   1 2 0.0 84.532441 7.104848 109.775757
12655   1 2 0.0 84.425158 13.086096 111.864683
12656   1 2 0.0 82.980597 7.444879 112.702952
12657   1 2 0.0 83.562540 4.136999 112.244161
12658   1 2 0.0 81.534362 6.131953 115.855006
12659   1 2 0.0 84.911180 7.677086 111.808327
12660   1 2 0.0 86.027990 11.452570 110.110920
12661   1 1 0.0 77.091300 -0.062741 124.322240
12662   1 1 0.0 81.635892 1.988217 118.023848
12663   1 1 0.0 76.985513 0.824180 121.192529
12664   1 1 0.0 79.201448 -0.118651 118.754801
12665   1 2 0.0 78.522341 1.633989 123.783032
12666   1 2 0.0 79.792681 0.275349 116.874337
12667   1 2 0.0 80.977020 6.139152 118.963263
12668   1 2 0.0 78.350593 0.941849 119.801532
12669   1 2 0.0 78.205932 -2.413715 119.342741
12670   1 2 0.0 76.655379 -0.028524 122.953586
12671   1 2 0.0 80.285850 0.752511 118.906907
12672   1 2 0.0 82.190119 4.198568 117.209500
12673   1 1 0.0 70.981631 -5.120048 131.420820
12674   1 1 0.0 75.861449 -4.096759 125.122428
12675   1 1 0.0 71.069483 -4.231171 128.291109
12676   1 1 0.0 73.030138 -5.629432 125.853381
12677   1 2 0.0 72.744727 -3.771617 130.881612
12678   1 2 0.0 73.692393 -5.372116 123.972917
12679   1 2 0.0 76.112687 0.098626 126.061843
12680   1 2 0.0 72.427842 -4.410476 126.900112
12681   1 2 0.0 71.563378 -7.656001 126.441321
12682   1 2 0.0 70.563330 -4.992684 130.052166
12683   1 2 0.0 74.276811 -5.012457 126.005487
12684   1 2 0.0 76.879035 -2.057804 124.308080
12685   1 1 0.0 63.925579 -8.741723 138.519400
12686   1 1 0.0 68.911257 -8.794199 132.221008
12687   1 1 0.0 64.202940 -7.892670 135.389689
12688   1 1 0.0 65.816159 -9.680638 132.951961
12689   1 2 0.0 65.937858 -7.804971 137.980192
12690   1 2 0.0 66.518307 -9.572100 131.071497
12691   1 2 0.0 70.060796 -4.751559 133.160423
12692   1 2 0.0 65.490732 -8.360520 133.998692
12693   1 2 0.0 63.947095 -11.343458 133.539901
12694   1 2 0.0 63.544558 -8.527199 137.150746
12695   1 2 0.0 67.166506 -9.346850 133.104067
12696   1 2 0.0 70.344372 -7.022476 131.406660
12697   1 1 0.0 56.254797 -10.757537 145.617980
12698   1 1 0.0 61.111995 -11.883312 139.319588
12699   1 1 0.0 56.708630 -9.988216 142.488269
12700   1 1 0.0 57.898587 -12.081850 140.050541
12701   1 2 0.0 58.421677 -10.276494 145.078772
12702   1 2 0.0 58.607626 -12.127193 138.170077
12703   1 2 0.0 63.105803 -8.183433 140.259003
12704   1 2 0.0 57.865324 -10.722620 141.097272
12705   1 2 0.0 55.715072 -13.302764 140.638481
12706   1 2 0.0 55.928965 -10.465935 144.249326
12707   1 2 0.0 59.289138 -12.046939 140.202647
12708   1 2 0.0 62.893277 -10.462097 138.505240
12709   1 1 0.0 48.329833 -11.072740 152.716560
12710   1 1 0.0 52.830249 -13.218900 146.418168
12711   1 1 0.0 48.938808 -10.419311 149.586849
12712   1 1 0.0 49.649571 -12.720206 147.149121
12713   1 2 0.0 50.549464 -11.070017 152.177352
12714   1 2 0.0 50.332174 -12.917299 145.268657
12715   1 2 0.0 55.574611 -10.035686 147.357583
12716   1 2 0.0 49.910036 -11.385751 148.195852
12717   1 2 0.0 47.254235 -13.441828 147.737061
12718   1 2 0.0 48.074506 -10.717767 151.347906
12719   1 2 0.0 51.014966 -12.985813 147.301227
12720   1 2 0.0 54.875974 -12.214994 145.603820
12721   1 1 0.0 40.523183 -9.672518 159.815140
12722   1 1 0.0 44.455284 -12.738186 153.516748
12723   1 1 0.0 41.258675 -9.165694 156.685429
12724   1 1 0.0 41.456837 -11.565701 154.247701
12725   1 2 0.0 42.691237 -10.148242 159.275932
12726   1 2 0.0 42.080920 -11.905279 152.367237
12727   1 2 0.0 47.821209 -10.221258 154.456163
12728   1 2 0.0 41.998788 -10.318744 155.294432
12729   1 2 0.0 38.962269 -11.754112 154.835641
12730   1 2 0.0 40.350362 -9.270858 158.446486
12731   1 2 0.0 42.732899 -12.119340 154.399807
12732   1 2 0.0 46.669298 -12.198776 152.702400
12733   1 1 0.0 33.201781 -6.622684 166.913720
12734   1 1 0.0 36.380748 -10.463766 160.615328
12735   1 1 0.0 34.029221 -6.286288 163.784009
12736   1 1 0.0 33.705467 -8.672600 161.346281
12737   1 2 0.0 35.216353 -7.554495 166.374512
12738   1 2 0.0 34.241696 -9.138701 159.465817
12739   1 2 0.0 40.210027 -8.731426 161.554743
12740   1 2 0.0 34.503431 -7.571751 162.393012
12741   1 2 0.0 31.228918 -8.318943 161.934221
12742   1 2 0.0 33.119589 -6.193217 165.545066
12743   1 2 0.0 34.832217 -9.488249 161.498387
12744   1 2 0.0 38.658985 -10.414205 159.800980
12745   1 1 0.0 26.709754 -2.066590 174.012300
12746   1 1 0.0 28.986167 -6.502544 167.713908
12747   1 1 0.0 27.590250 -1.916432 170.882589
12748   1 1 0.0 26.759797 -4.176886 168.444861
12749   1 2 0.0 28.476154 -3.410690 173.473092
12750   1 2 0.0 27.182969 -4.747604 166.564397
12751   1 2 0.0 33.098813 -5.636216 168.653323
12752   1 2 0.0 27.776267 -3.273888 169.491592
12753   1 2 0.0 24.417672 -3.297786 169.032801
12754   1 2 0.0 26.722054 -1.629501 172.643646
12755   1 2 0.0 27.684276 -5.216208 168.596967
12756   1 2 0.0 31.221544 -6.945162 166.899560
12757   1 1 0.0 21.352246 3.781616 181.110880
12758   1 1 0.0 22.619106 -1.040708 174.812488
12759   1 1 0.0 22.244411 3.738477 177.981169
12760   1 1 0.0 20.946294 1.710129 175.543441
12761   1 2 0.0 22.787447 2.088403 180.571672
12762   1 2 0.0 21.236517 1.061621 173.662977
12763   1 2 0.0 26.821813 -1.081113 175.751903
12764   1 2 0.0 22.133493 2.372832 176.590172
12765   1 2 0.0 18.848679 3.073353 176.131381
12766   1 2 0.0 21.458460 4.205781 179.742226
12767   1 2 0.0 21.625047 0.495986 175.695547
12768   1 2 0.0 24.706554 -1.954701 173.998140
12769   1 1 0.0 17.381074 10.647051 188.209460
12770   1 1 0.0 17.578836 5.665020 181.911068
12771   1 1 0.0 18.242974 10.412643 185.079749
12772   1 1 0.0 16.538208 8.711739 182.642021
12773   1 2 0.0 18.417618 8.684311 187.670252
12774   1 2 0.0 16.681841 8.015922 180.761557
12775   1 2 0.0 21.674065 4.719781 182.850483
12776   1 2 0.0 17.840334 9.102998 183.688752
12777   1 2 0.0 14.783696 10.495011 183.229961
12778   1 2 0.0 17.576209 11.038356 186.840806
12779   1 2 0.0 16.939333 7.379843 182.794127
12780   1 2 0.0 19.420238 4.322612 181.096720
12781   1 1 0.0 14.982894 18.207020 195.308040
12782   1 1 0.0 14.102262 13.299452 189.009648
12783   1 1 0.0 15.774018 17.792361 192.178329
12784   1 1 0.0 13.742731 16.498849 189.740601
12785   1 2 0.0 15.572061 16.067008 194.768832
12786   1 2 0.0 13.733023 15.788428 187.860137
12787   1 2 0.0 17.897526 11.493808 189.949063
12788   1 2 0.0 15.098580 16.600273 190.787332
12789   1 2 0.0 12.413791 18.618351 190.328541
12790   1 2 0.0 15.257779 18.547073 193.939386
12791   1 2 0.0 13.847373 15.111802 189.892707
12792   1 2 0.0 15.611068 11.591727 188.195300
12793   1 1 0.0 14.270428 26.106185 202.406620
12794   1 1 0.0 12.352795 21.503748 196.108228
12795   1 1 0.0 14.953591 25.530765 199.276909
12796   1 1 0.0 12.691259 24.705443 196.839181
12797   1 2 0.0 14.384525 23.889486 201.867412
12798   1 2 0.0 12.528667 24.013809 194.958717
12799   1 2 0.0 15.669705 18.922570 197.047643
12800   1 2 0.0 14.037103 24.512265 197.885912
12801   1 2 0.0 11.850353 27.061551 197.427121
12802   1 2 0.0 14.612142 26.379002 201.037966
12803   1 2 0.0 12.494500 23.328440 196.991287
12804   1 2 0.0 13.458086 19.510973 195.293880
12805   1 1 0.0 15.277163 33.973261 4.183324
12806   1 1 0.0 12.412663 29.892283 203.206808
12807   1 1 0.0 15.820254 33.264126 1.053613
12808   1 1 0.0 13.433214 32.945787 203.937761
12809   1 2 0.0 14.910828 31.784067 3.644116
12810   1 2 0.0 13.125380 32.305450 202.057297
12811   1 2 0.0 15.095316 26.656894 204.146223
12812   1 2 0.0 14.705795 32.467088 204.984492
12813   1 2 0.0 13.119868 35.427758 204.525701
12814   1 2 0.0 15.669645 34.166019 2.814670
12815   1 2 0.0 12.944303 31.643552 204.089867
12816   1 2 0.0 13.062488 27.708125 202.392460
12817   1 1 0.0 17.955781 41.438475 11.281904
12818   1 1 0.0 14.279052 38.070774 4.983512
12819   1 1 0.0 18.333273 40.628957 8.152193
12820   1 1 0.0 15.933722 40.832562 5.714465
12821   1 2 0.0 17.126231 39.379684 10.742696
12822   1 2 0.0 15.495114 40.273620 3.834001
12823   1 2 0.0 16.201356 34.333245 5.922927
12824   1 2 0.0 17.073224 40.090842 6.761196
12825   1 2 0.0 16.162664 43.323738 6.302405
12826   1 2 0.0 18.380583 41.542113 9.913250
12827   1 2 0.0 15.175638 39.666304 5.866571
12828   1 2 0.0 14.442868 35.797894 4.169164
12829   1 1 0.0 22.180378 48.150940 18.380484
12830   1 1 0.0 17.864238 45.654807 12.082092
12831   1 1 0.0 22.374528 47.279088 15.250773
12832   1 1 0.0 20.075252 47.995069 12.813045
12833   1 2 0.0 20.926606 46.319321 17.841276
12834   1 2 0.0 19.526487 47.543793 10.932581
12835   1 2 0.0 18.935839 41.590813 13.021507
12836   1 2 0.0 21.028116 47.025190 13.859776
12837   1 2 0.0 20.835721 50.378355 13.400985
12838   1 2 0.0 22.617533 48.160587 17.011830
12839   1 2 0.0 19.083628 47.019604 12.965151
12840   1 2 0.0 17.534345 43.400036 11.267744
12841   1 1 0.0 27.752387 53.795151 25.479064
12842   1 1 0.0 22.999707 52.287911 19.180672
12843   1 1 0.0 27.754070 52.901945 22.349353
12844   1 1 0.0 25.663140 54.096648 19.911625
12845   1 2 0.0 26.133323 52.276796 24.939856
12846   1 2 0.0 25.030011 53.774250 18.031161
12847   1 2 0.0 23.170236 48.088471 20.120087
12848   1 2 0.0 26.384579 52.944198 20.958356
12849   1 2 0.0 26.919392 56.260025 20.499565
12850   1 2 0.0 28.181348 53.710355 24.110410
12851   1 2 0.0 24.484585 53.357827 20.063731
12852   1 2 0.0 22.191609 50.157231 18.366324
12853   1 1 0.0 34.409908 58.105815 32.577644
12854   1 1 0.0 29.444076 57.658314 26.279252
12855   1 1 0.0 34.219044 57.233238 29.447933
12856   1 1 0.0 32.434741 58.850509 27.010205
12857   1 2 0.0 32.501652 56.972090 32.038436
12858   1 2 0.0 31.747007 58.672142 25.129741
12859   1 2 0.0 28.705519 53.520813 27.218667
12860   1 2 0.0 32.890845 57.569656 28.056936
12861   1 2 0.0 34.127728 60.692292 27.598145
12862   1 2 0.0 34.810512 57.930561 31.208990
12863   1 2 0.0 31.124649 58.383058 27.162311
12864   1 2 0.0 28.195758 55.751871 25.464904
12865   1 1 0.0 41.840018 60.880319 39.676224
12866   1 1 0.0 36.894443 61.513589 33.377832
12867   1 1 0.0 41.465578 60.069384 36.546513
12868   1 1 0.0 40.071769 62.033207 34.108785
12869   1 2 0.0 39.732264 60.184513 39.137016
12870   1 2 0.0 39.361756 62.007255 32.228321
12871   1 2 0.0 35.281513 57.632502 34.317247
12872   1 2 0.0 40.241100 60.684155 35.155516
12873   1 2 0.0 42.121917 63.466826 34.696725
12874   1 2 0.0 42.193435 60.622844 38.307570
12875   1 2 0.0 38.691720 61.859097 34.260891
12876   1 2 0.0 35.264578 59.920993 32.563484
12877   1 1 0.0 46.942256 57.416223 47.307897
12878   1 1 0.0 41.969052 58.786787 41.919500
12879   1 1 0.0 46.990770 56.469586 43.874496
12880   1 1 0.0 45.480642 58.678310 42.151683
12881   1 2 0.0 44.922660 57.106541 46.763496
12882   1 2 0.0 45.017783 58.690904 40.220067
12883   1 2 0.0 41.018828 55.232621 41.676899
12884   1 2 0.0 45.796592 57.299228 42.752141
12885   1 2 0.0 47.263536 59.794371 43.038198
12886   1 2 0.0 47.486512 56.983176 45.774165
12887   1 2 0.0 43.887460 58.810996 42.561120
12888   1 2 0.0 40.699532 57.455450 40.692971
12889   1 1 0.0 53.929215 57.505914 54.406477
12890   1 1 0.0 49.368277 59.916112 49.018080
12891   1 1 0.0 53.772566 56.571069 50.973076
12892   1 1 0.0 52.773960 59.053353 49.250263
12893   1 2 0.0 51.890339 57.638782 53.862076
12894   1 2 0.0 52.324694 59.165408 47.318647
12895   1 2 0.0 47.674378 56.650270 48.775479
12896   1 2 0.0 52.785260 57.638587 49.850721
12897   1 2 0.0 54.755492 59.758929 50.136778
12898   1 2 0.0 54.367348 56.965744 52.872745
12899   1 2 0.0 51.246818 59.526290 49.659700
12900   1 2 0.0 47.841658 58.889675 47.791551
12901   1 1 0.0 60.771301 56.087642 61.505057
12902   1 1 0.0 56.837006 59.424187 56.116660
12903   1 1 0.0 60.416852 55.208528 58.071656
12904   1 1 0.0 59.976706 57.847699 56.348843
12905   1 2 0.0 58.808977 56.656813 60.960656
12906   1 2 0.0 59.562149 58.053948 54.417227
12907   1 2 0.0 54.479050 56.600172 55.874059
12908   1 2 0.0 59.682825 56.463746 56.949301
12909   1 2 0.0 62.063737 58.109625 57.235358
12910   1 2 0.0 61.082718 55.465739 59.971325
12911   1 2 0.0 58.587383 58.638656 56.758280
12912   1 2 0.0 55.125043 58.750896 54.890131
12913   1 1 0.0 67.146917 53.228069 68.603637
12914   1 1 0.0 64.024188 57.334135 63.215240
12915   1 1 0.0 66.611329 52.446008 65.170236
12916   1 1 0.0 66.750330 55.118016 63.447423
12917   1 2 0.0 65.353380 54.206791 68.059236
12918   1 2 0.0 66.389967 55.408765 61.515807
12919   1 2 0.0 61.113005 55.084684 62.972639
12920   1 2 0.0 66.165081 53.829927 64.047881
12921   1 2 0.0 68.844765 54.923982 64.333938
12922   1 2 0.0 67.316981 52.553664 67.069905
12923   1 2 0.0 65.564128 56.189817 63.856860
12924   1 2 0.0 62.207349 57.045636 61.988711
12925   1 1 0.0 72.756391 49.061604 75.702217
12926   1 1 0.0 70.592006 53.744193 70.313820
12927   1 1 0.0 72.064837 48.413354 72.268816
12928   1 1 0.0 72.776454 50.992608 70.546003
12929   1 2 0.0 71.215943 50.403874 75.157816
12930   1 2 0.0 72.487222 51.354191 68.614387
12931   1 2 0.0 67.264429 52.175037 70.071219
12932   1 2 0.0 71.927345 49.860926 71.146461
12933   1 2 0.0 74.779847 50.351734 71.432518
12934   1 2 0.0 72.777108 48.366395 74.168485
12935   1 2 0.0 71.849127 52.294875 70.955440
12936   1 2 0.0 68.755686 53.854046 69.087291
12937   1 1 0.0 77.336062 43.784081 82.800797
12938   1 1 0.0 76.231753 48.823099 77.412400
12939   1 1 0.0 76.521048 43.300112 79.367396
12940   1 1 0.0 77.771831 45.665380 77.644583
12941   1 2 0.0 76.121108 45.426809 82.256396
12942   1 2 0.0 77.567327 46.080801 75.712967
12943   1 2 0.0 72.644188 48.007992 77.169799
12944   1 2 0.0 76.698773 44.743297 78.245041
12945   1 2 0.0 79.590018 44.607789 78.531098
12946   1 2 0.0 77.206458 43.100745 81.267065
12947   1 2 0.0 77.146967 47.136903 78.054020
12948   1 2 0.0 74.462265 49.326141 76.185871
12949   1 1 0.0 80.670674 37.643559 89.899377
12950   1 1 0.0 80.678345 42.802159 84.510980
12951   1 1 0.0 79.770506 37.346620 86.465976
12952   1 1 0.0 81.501665 39.386727 84.743163
12953   1 2 0.0 79.838320 39.509533 89.354976
12954   1 2 0.0 81.391501 39.836461 82.811547
12955   1 2 0.0 76.999418 42.779413 84.268379
12956   1 2 0.0 80.255095 38.717584 85.343621
12957   1 2 0.0 83.049186 37.962128 85.629678
12958   1 2 0.0 80.396840 37.004216 88.365645
12959   1 2 0.0 81.208635 40.958340 85.152600
12960   1 2 0.0 79.058860 43.674745 83.284451
12961   1 1 0.0 82.603488 30.928661 96.997957
12962   1 1 0.0 83.722780 35.964373 91.609560
12963   1 1 0.0 81.660479 30.832707 93.564556
12964   1 1 0.0 83.790645 32.451763 91.841743
12965   1 2 0.0 82.192857 32.930173 96.453556
12966   1 2 0.0 83.779997 32.914670 89.910127
12967   1 2 0.0 80.125411 36.735058 91.366959
12968   1 2 0.0 82.429154 32.067011 92.442201
12969   1 2 0.0 84.994762 30.727116 92.728258
12970   1 2 0.0 82.198297 30.363360 95.464225
12971   1 2 0.0 83.843221 34.049596 92.251180
12972   1 2 0.0 82.329418 37.165489 90.383031
12973   1 1 0.0 83.043659 23.955004 104.096537
12974   1 1 0.0 85.221962 28.631136 98.708140
12975   1 1 0.0 82.102131 24.064546 100.663136
12976   1 1 0.0 84.531180 25.186451 98.940323
12977   1 2 0.0 83.074052 25.997979 103.552136
12978   1 2 0.0 84.620551 25.640774 97.008707
12979   1 2 0.0 81.875236 30.159027 98.465539
12980   1 2 0.0 83.118764 25.104175 99.540781
12981   1 2 0.0 85.335297 23.242820 99.826838
12982   1 2 0.0 82.526155 23.490318 102.562805
12983   1 2 0.0 84.926892 26.735401 99.349760
12984   1 2 0.0 84.120215 30.104327 97.481611
12985   1 1 0.0 81.970497 17.050371 111.195117
12986   1 1 0.0 85.105423 21.147131 105.806720
12987   1 1 0.0 81.074705 17.360260 107.761716
12988   1 1 0.0 83.688465 17.932281 106.038903
12989   1 2 0.0 82.440485 19.038783 110.650716
12990   1 2 0.0 83.873652 18.356665 104.107287
12991   1 2 0.0 82.166648 23.360414 105.564119
12992   1 2 0.0 82.291510 18.156348 106.639361
12993   1 2 0.0 84.054785 15.861022 106.925418
12994   1 2 0.0 81.365003 16.708140 109.661385
12995   1 2 0.0 84.408712 19.359543 106.448340
12996   1 2 0.0 84.347077 22.823153 104.580191
12997   1 1 0.0 79.434442 10.539298 118.293697
12998   1 1 0.0 83.378643 13.864128 112.905300
12999   1 1 0.0 78.626492 11.034970 114.860296
13000   1 1 0.0 81.302109 11.030219 113.137483
13001   1 2 0.0 80.321935 12.379686 117.749296
13002   1 2 0.0 81.574409 11.404718 111.205867
13003   1 2 0.0 80.985948 16.658771 112.662699
13004   1 2 0.0 79.986275 11.550097 113.737941
13005   1 2 0.0 81.213414 8.928687 114.023998
13006   1 2 0.0 78.769420 10.335608 116.759965
13007   1 2 0.0 82.313038 12.268708 113.546920
13008   1 2 0.0 82.999342 15.664202 111.678771
13009   1 1 0.0 75.554698 4.727825 125.392277
13010   1 1 0.0 80.122784 7.124447 120.003880
13011   1 1 0.0 74.872564 5.385980 121.958876
13012   1 1 0.0 77.484277 4.804682 120.236063
13013   1 2 0.0 76.817981 6.333685 124.847876
13014   1 2 0.0 77.830891 5.111692 118.304447
13015   1 2 0.0 78.388633 10.369095 119.761279
13016   1 2 0.0 76.311414 5.595936 120.836521
13017   1 2 0.0 76.944737 2.771655 121.122578
13018   1 2 0.0 74.861405 4.672250 123.858545
13019   1 2 0.0 78.738372 5.796186 120.645500
13020   1 2 0.0 80.140356 8.963966 118.777351
13021   1 1 0.0 70.513623 -0.110893 132.490857
13022   1 1 0.0 75.490882 1.244874 127.102460
13023   1 1 0.0 69.989368 0.678810 129.057456
13024   1 1 0.0 72.414418 -0.451713 127.334643
13025   1 2 0.0 72.093318 1.184959 131.946456
13026   1 2 0.0 72.819055 -0.226621 125.403027
13027   1 2 0.0 74.496784 4.787019 126.859859
13028   1 2 0.0 71.439653 0.573725 127.935101
13029   1 2 0.0 71.449392 -2.320677 128.221158
13030   1 2 0.0 69.824645 -0.015741 130.957125
13031   1 2 0.0 73.852733 0.246202 127.744080
13032   1 2 0.0 75.904500 3.037374 125.875931
13033   1 1 0.0 64.548161 -3.749424 139.589437
13034   1 1 0.0 69.700647 -3.498236 134.201040
13035   1 1 0.0 64.206427 -2.865290 136.156036
13036   1 1 0.0 66.330831 -4.491900 134.433223
13037   1 2 0.0 66.370018 -2.824487 139.045036
13038   1 2 0.0 66.774470 -4.359307 132.501607
13039   1 2 0.0 69.493329 0.174915 133.958439
13040   1 2 0.0 65.599980 -3.280476 135.033681
13041   1 2 0.0 64.985678 -6.108955 135.319738
13042   1 2 0.0 63.895883 -3.508016 138.055705
13043   1 2 0.0 67.885760 -4.120378 134.842660
13044   1 2 0.0 70.490872 -1.837007 132.974511
13045   1 1 0.0 57.938707 -6.016745 146.688017
13046   1 1 0.0 63.024239 -6.881944 141.299620
13047   1 1 0.0 57.795555 -5.079738 143.254616
13048   1 1 0.0 59.519459 -7.125979 141.531803
13049   1 2 0.0 59.917093 -5.506199 146.143616
13050   1 2 0.0 59.981249 -7.092117 139.600187
13051   1 2 0.0 63.613444 -3.250435 141.057019
13052   1 2 0.0 59.066875 -5.785510 142.132261
13053   1 2 0.0 57.857406 -8.415119 142.418318
13054   1 2 0.0 57.353787 -5.640429 145.154285
13055   1 2 0.0 61.117917 -7.098313 141.941240
13056   1 2 0.0 64.153926 -5.430068 140.073091
13057   1 1 0.0 50.995922 -6.806286 153.786597
13058   1 1 0.0 55.775466 -8.747205 148.398200
13059   1 1 0.0 51.058082 -5.860447 150.353196
13060   1 1 0.0 52.300458 -8.230142 148.630383
13061   1 2 0.0 53.037848 -6.734128 153.242196
13062   1 2 0.0 52.758694 -8.296602 146.698767
13063   1 2 0.0 57.133500 -5.328029 148.155599
13064   1 2 0.0 52.147413 -6.823632 149.230841
13065   1 2 0.0 50.399625 -9.130773 149.516898
13066   1 2 0.0 50.505853 -6.312750 152.252865
13067   1 2 0.0 53.867313 -8.547631 149.039820
13068   1 2 0.0 57.191518 -7.572924 147.171671
13069   1 1 0.0 44.046137 -6.080937 160.885177
13070   1 1 0.0 48.295041 -9.006347 155.496780
13071   1 1 0.0 44.310687 -5.170724 157.451776
13072   1 1 0.0 45.013141 -7.752489 155.728963
13073   1 2 0.0 46.055627 -6.450558 160.340776
13074   1 2 0.0 45.446283 -7.916148 153.797347
13075   1 2 0.0 50.358073 -5.960215 155.254179
13076   1 2 0.0 45.166828 -6.346049 156.329421
13077   1 2 0.0 42.962872 -8.222279 156.615478
13078   1 2 0.0 43.673955 -5.493379 159.351445
13079   1 2 0.0 46.474745 -8.400211 156.138400
13080   1 2 0.0 49.930899 -8.164856 154.270251
13081   1 1 0.0 37.416012 -3.874791 167.983757
13082   1 1 0.0 40.934566 -7.647189 162.595360
13083   1 1 0.0 37.870518 -3.042986 164.550356
13084   1 1 0.0 38.000031 -5.715471 162.827543
13085   1 2 0.0 39.298614 -4.668818 167.439356
13086   1 2 0.0 38.387721 -5.968636 160.895927
13087   1 2 0.0 43.605628 -5.117278 162.352759
13088   1 2 0.0 38.453228 -4.375208 163.428001
13089   1 2 0.0 35.896696 -5.732339 163.714058
13090   1 2 0.0 37.179209 -3.220827 166.450025
13091   1 2 0.0 39.287686 -6.662982 163.236980
13092   1 2 0.0 42.713340 -7.178041 161.368831
13093   1 1 0.0 31.417182 -0.291543 175.082337
13094   1 1 0.0 34.040003 -4.733616 169.693940
13095   1 1 0.0 32.040279 0.422757 171.648936
13096   1 1 0.0 31.590764 -2.214834 169.926123
13097   1 2 0.0 33.084408 -1.472655 174.537936
13098   1 2 0.0 31.914780 -2.545606 167.994507
13099   1 2 0.0 37.193547 -2.838839 169.451339
13100   1 2 0.0 32.322169 -1.003744 170.526581
13101   1 2 0.0 29.533225 -1.777987 170.812638
13102   1 2 0.0 31.326889 0.398089 173.548605
13103   1 2 0.0 32.643947 -3.417597 170.335560
13104   1 2 0.0 35.878086 -4.658862 168.467411
13105   1 1 0.0 26.331607 4.500384 182.180917
13106   1 1 0.0 27.935416 -0.402574 176.792520
13107   1 1 0.0 27.094009 5.063605 178.747516
13108   1 1 0.0 26.086595 2.584882 177.024703
13109   1 2 0.0 27.705093 2.987703 181.636516
13110   1 2 0.0 26.331707 2.192050 175.093087
13111   1 2 0.0 31.423216 0.768009 176.549919
13112   1 2 0.0 27.061829 3.609874 177.625161
13113   1 2 0.0 24.171562 3.454911 177.911218
13114   1 2 0.0 26.392068 5.193269 180.647185
13115   1 2 0.0 26.855802 1.183399 177.434140
13116   1 2 0.0 29.746413 -0.725728 175.565991
13117   1 1 0.0 22.398324 10.275757 189.279497
13118   1 1 0.0 22.907737 5.142366 183.891100
13119   1 1 0.0 23.264197 10.661425 185.846096
13120   1 1 0.0 21.746235 8.458077 184.123283
13121   1 2 0.0 23.413513 8.502607 188.735096
13122   1 2 0.0 21.900921 8.021650 182.191667
13123   1 2 0.0 26.565858 5.533735 183.648499
13124   1 2 0.0 22.919460 9.248794 184.723741
13125   1 2 0.0 20.063719 9.720395 185.009798
13126   1 2 0.0 22.606697 10.939327 187.745765
13127   1 2 0.0 22.195312 6.923749 184.532720
13128   1 2 0.0 24.606526 4.436494 182.664571
13129   1 1 0.0 19.802210 16.763116 196.378077
13130   1 1 0.0 19.193283 11.640576 190.989680
13131   1 1 0.0 20.730853 16.953104 192.944676
13132   1 1 0.0 18.773692 15.128695 191.221863
13133   1 2 0.0 20.411384 14.812840 195.833676
13134   1 2 0.0 18.830683 14.669186 189.290247
13135   1 2 0.0 22.849782 11.234335 190.747079
13136   1 2 0.0 20.089763 15.647971 191.822321
13137   1 2 0.0 17.402777 16.723968 192.108378
13138   1 2 0.0 20.148701 17.366181 194.844345
13139   1 2 0.0 18.881530 13.533639 191.631300
13140   1 2 0.0 20.700016 10.585164 189.763151
13141   1 1 0.0 18.665287 23.657537 203.476657
13142   1 1 0.0 16.966642 18.786622 198.088260
13143   1 1 0.0 19.613053 23.642915 200.043256
13144   1 1 0.0 17.308684 22.283197 198.320443
13145   1 2 0.0 18.839814 21.621803 202.932256
13146   1 2 0.0 17.265301 21.822204 196.388827
13147   1 2 0.0 20.449654 17.601866 197.845659
13148   1 2 0.0 18.705742 22.506625 198.920901
13149   1 2 0.0 16.313807 24.136444 199.206958
13150   1 2 0.0 19.133610 24.171753 201.942925
13151   1 2 0.0 17.070216 20.702385 198.729880
13152   1 2 0.0 18.210498 17.431277 196.861731
13153   1 1 0.0 19.040995 30.634963 5.253361
13154   1 1 0.0 16.332473 26.244620 205.186840
13155   1 1 0.0 19.963336 30.416419 1.819960
13156   1 1 0.0 17.420072 29.585303 0.097147
13157   1 2 0.0 18.772672 28.609458 4.708960
13158   1 2 0.0 17.278353 29.144494 203.487407
13159   1 2 0.0 19.478286 24.337036 204.944239
13160   1 2 0.0 18.832451 29.502381 0.697605
13161   1 2 0.0 16.847995 31.609415 0.983662
13162   1 2 0.0 19.609138 31.036160 3.719629
13163   1 2 0.0 16.846505 28.093038 0.506584
13164   1 2 0.0 17.254987 24.653047 203.960311
13165   1 1 0.0 20.911675 37.367436 12.351941
13166   1 1 0.0 17.320583 33.664023 6.963544
13167   1 1 0.0 21.765238 36.955242 8.918540
13168   1 1 0.0 19.102619 36.691792 7.195727
13169   1 2 0.0 20.213113 35.447363 11.807540
13170   1 2 0.0 18.869226 36.291886 5.264111
13171   1 2 0.0 19.981336 31.123273 6.720943
13172   1 2 0.0 20.463933 36.306418 7.796185
13173   1 2 0.0 18.980230 38.791631 8.082242
13174   1 2 0.0 21.552933 37.636756 10.818209
13175   1 2 0.0 18.220913 35.358214 7.605164
13176   1 2 0.0 17.878396 31.911031 5.737015
13177   1 1 0.0 24.189399 43.538511 19.450521
13178   1 1 0.0 19.884530 40.696099 14.062124
13179   1 1 0.0 24.934065 42.952041 16.017120
13180   1 1 0.0 22.277241 43.268640 14.294307
13181   1 2 0.0 23.093433 41.814119 18.906120
13182   1 2 0.0 21.963144 42.928434 12.362691
13183   1 2 0.0 21.935159 37.641604 13.819523
13184   1 2 0.0 23.523505 42.598927 14.894765
13185   1 2 0.0 22.610294 45.345507 15.180822
13186   1 2 0.0 24.873631 43.663295 17.916789
13187   1 2 0.0 21.128839 42.156431 14.703744
13188   1 2 0.0 20.051421 38.864082 12.835595
13189   1 1 0.0 28.720105 48.858129 26.549101
13190   1 1 0.0 23.903799 47.010320 21.160704
13191   1 1 0.0 29.320872 48.124949 23.115700
13192   1 1 0.0 26.794721 49.006716 21.392887
13193   1 2 0.0 27.278248 47.410470 26.004700
13194   1 2 0.0 26.414684 48.742201 19.461271
13195   1 2 0.0 25.247919 43.585650 20.918103
13196   1 2 0.0 27.867358 48.084142 21.993345
13197   1 2 0.0 27.567562 50.962993 22.279402
13198   1 2 0.0 29.415151 48.832512 25.015369
13199   1 2 0.0 25.433602 48.168154 21.802324
13200   1 2 0.0 23.671925 45.185389 19.934175
13201   1 1 0.0 34.290838 53.076254 33.647681
13202   1 1 0.0 29.189474 52.309899 28.259284
13203   1 1 0.0 34.719468 52.230825 30.214280
13204   1 1 0.0 32.442727 53.636315 28.491467
13205   1 2 0.0 32.570861 51.973371 33.103280
13206   1 2 0.0 32.014612 53.459924 26.559851
13207   1 2 0.0 29.763908 48.676024 28.016683
13208   1 2 0.0 33.291318 52.504244 29.091925
13209   1 2 0.0 33.619029 55.380051 29.377982
13210   1 2 0.0 34.964028 52.901440 32.113949
13211   1 2 0.0 30.932865 53.110814 28.900904
13212   1 2 0.0 28.569734 50.577831 27.032755
13213   1 1 0.0 40.639756 55.994622 40.746261
13214   1 1 0.0 35.493114 56.345742 35.357864
13215   1 1 0.0 40.876103 55.076682 37.312860
13216   1 1 0.0 38.955785 56.939832 35.590047
13217   1 2 0.0 38.722504 55.288354 40.201860
13218   1 2 0.0 38.499714 56.859856 33.658431
13219   1 2 0.0 35.270862 52.673465 35.115263
13220   1 2 0.0 39.540445 55.651475 36.190505
13221   1 2 0.0 40.480259 58.389068 36.476562
13222   1 2 0.0 41.259448 55.678828 39.212529
13223   1 2 0.0 37.368149 56.752092 35.999484
13224   1 2 0.0 34.514637 54.787949 34.131335
13225   1 1 0.0 46.258441 52.569533 47.043480
13226   1 1 0.0 41.344584 53.934839 42.312022
13227   1 1 0.0 46.611533 51.518569 43.564693
13228   1 1 0.0 44.775221 53.780061 42.375923
13229   1 2 0.0 44.532049 52.251192 46.405018
13230   1 2 0.0 44.458857 53.747516 40.478400
13231   1 2 0.0 41.516870 50.343226 41.139528
13232   1 2 0.0 45.372780 52.369305 42.651319
13233   1 2 0.0 46.136213 54.950639 43.474686
13234   1 2 0.0 46.887478 52.081928 45.498131
13235   1 2 0.0 43.183586 53.948266 42.858747
13236   1 2 0.0 40.562306 52.575116 40.815308
13237   1 1 0.0 52.216894 52.920506 54.142060
13238   1 1 0.0 47.712775 55.312779 49.410602
13239   1 1 0.0 52.335179 51.818142 50.663273
13240   1 1 0.0 51.029429 54.422255 49.474503
13241   1 2 0.0 50.462464 52.981726 53.503598
13242   1 2 0.0 50.713486 54.458658 47.576980
13243   1 2 0.0 47.106934 51.768442 48.238108
13244   1 2 0.0 51.308893 52.915865 49.749899
13245   1 2 0.0 52.610723 55.271997 50.573266
13246   1 2 0.0 52.726057 52.308789 52.596711
13247   1 2 0.0 49.511452 54.929542 49.957327
13248   1 2 0.0 46.655829 54.153610 47.913888
13249   1 1 0.0 58.110957 51.979044 61.240640
13250   1 1 0.0 54.228283 55.285839 56.509182
13251   1 1 0.0 57.988877 50.877093 57.761853
13252   1 1 0.0 57.275062 53.701426 56.573083
13253   1 2 0.0 56.410953 52.416946 60.602178
13254   1 2 0.0 56.974390 53.805067 54.675560
13255   1 2 0.0 52.872792 51.955372 55.336688
13256   1 2 0.0 57.223296 52.170207 56.848479
13257   1 2 0.0 59.002333 54.190391 57.671846
13258   1 2 0.0 58.476315 51.271966 59.695291
13259   1 2 0.0 55.902092 54.523951 57.055907
13260   1 2 0.0 52.946349 54.381710 55.012468
13261   1 1 0.0 63.663595 49.789396 68.339220
13262   1 1 0.0 60.584862 53.855286 63.607762
13263   1 1 0.0 63.306887 48.739654 64.860433
13264   1 1 0.0 63.218559 51.651455 63.671663
13265   1 2 0.0 62.097921 50.583398 67.700758
13266   1 2 0.0 62.947290 51.817462 61.774140
13267   1 2 0.0 58.543432 50.895230 62.435268
13268   1 2 0.0 62.837994 50.167379 63.947059
13269   1 2 0.0 65.010620 51.756661 64.770426
13270   1 2 0.0 63.867973 49.020192 66.793871
13271   1 2 0.0 62.055129 52.750557 64.154487
13272   1 2 0.0 59.138193 53.248692 62.111048
13273   1 1 0.0 68.613816 46.454483 75.437800
13274   1 1 0.0 66.483733 51.088358 70.706342
13275   1 1 0.0 68.039247 45.506290 71.959013
13276   1 1 0.0 68.580557 48.368696 70.770243
13277   1 2 0.0 67.256065 47.567264 74.799338
13278   1 2 0.0 68.351442 48.589267 68.872720
13279   1 2 0.0 63.852317 48.637845 69.533848
13280   1 2 0.0 67.889083 47.001519 71.045639
13281   1 2 0.0 70.353176 48.085198 71.869006
13282   1 2 0.0 68.647610 45.659308 73.892451
13283   1 2 0.0 67.681352 49.692715 71.253067
13284   1 2 0.0 64.940328 50.807812 69.209628
13285   1 1 0.0 72.728947 42.131054 82.536380
13286   1 1 0.0 71.647635 47.115111 77.804922
13287   1 1 0.0 71.963524 41.328979 79.057593
13288   1 1 0.0 73.109028 44.007449 77.868823
13289   1 2 0.0 71.642936 43.510311 81.897918
13290   1 2 0.0 72.932836 44.272216 75.971300
13291   1 2 0.0 68.549917 45.289320 76.632428
13292   1 2 0.0 72.139146 42.821431 78.144219
13293   1 2 0.0 74.778888 43.348572 78.967586
13294   1 2 0.0 72.590568 41.347284 80.991031
13295   1 2 0.0 72.516313 45.494152 78.351647
13296   1 2 0.0 70.080037 47.173798 76.308208
13297   1 1 0.0 75.815565 37.022324 89.634960
13298   1 1 0.0 75.833848 42.122297 84.903502
13299   1 1 0.0 74.895264 36.404065 86.156173
13300   1 1 0.0 76.591122 38.772705 84.967403
13301   1 2 0.0 75.052339 38.603228 88.996498
13302   1 2 0.0 76.476134 39.069223 83.069880
13303   1 2 0.0 72.415430 41.007047 83.731008
13304   1 2 0.0 75.388418 37.823593 85.242799
13305   1 2 0.0 78.079734 37.769417 86.066166
13306   1 2 0.0 75.511517 36.286797 88.089611
13307   1 2 0.0 76.332756 40.352211 85.450227
13308   1 2 0.0 74.315740 42.517459 83.406788
13309   1 1 0.0 77.728591 31.368416 96.733540
13310   1 1 0.0 78.845609 36.344592 92.002082
13311   1 1 0.0 76.696669 30.963034 93.254753
13312   1 1 0.0 78.863169 32.910510 92.065983
13313   1 2 0.0 77.324024 33.076660 96.095078
13314   1 2 0.0 78.814790 33.224842 90.168460
13315   1 2 0.0 75.267166 35.992302 90.829588
13316   1 2 0.0 77.484175 32.242914 92.341379
13317   1 2 0.0 80.100565 31.609970 93.164746
13318   1 2 0.0 77.273165 30.715705 95.188191
13319   1 2 0.0 78.951297 34.508580 92.548807
13320   1 2 0.0 77.448346 37.057656 90.505368
13321   1 1 0.0 78.378107 25.435081 103.832120
13322   1 1 0.0 80.541357 30.053566 99.100662
13323   1 1 0.0 77.283067 25.261630 100.353333
13324   1 1 0.0 79.818378 26.696405 99.164563
13325   1 2 0.0 78.351215 27.190372 103.193658
13326   1 2 0.0 79.838883 27.013776 97.267040
13327   1 2 0.0 76.971086 30.480795 97.928168
13328   1 2 0.0 78.327909 26.341705 99.439959
13329   1 2 0.0 80.746396 25.159741 100.263326
13330   1 2 0.0 77.792709 24.895865 102.286771
13331   1 2 0.0 80.248857 28.237924 99.647387
13332   1 2 0.0 79.330614 31.051015 97.603948
13333   1 1 0.0 77.733583 19.501201 110.930700
13334   1 1 0.0 80.841388 23.544913 106.199242
13335   1 1 0.0 76.626895 19.567834 107.451913
13336   1 1 0.0 79.411852 20.422469 106.263143
13337   1 2 0.0 78.085630 21.221037 110.292238
13338   1 2 0.0 79.500275 20.727963 104.365620
13339   1 2 0.0 77.447100 24.731581 105.026748
13340   1 2 0.0 77.879964 20.397337 106.538539
13341   1 2 0.0 79.986872 18.721910 107.361906
13342   1 2 0.0 77.045729 19.100825 109.385351
13343   1 2 0.0 80.164447 21.834983 106.745967
13344   1 2 0.0 79.874072 24.779865 104.702528
13345   1 1 0.0 75.825314 13.845687 118.029280
13346   1 1 0.0 79.731597 17.124560 113.297822
13347   1 1 0.0 74.758996 14.149270 114.550493
13348   1 1 0.0 77.662696 14.383596 113.361723
13349   1 2 0.0 76.539753 15.449229 117.390818
13350   1 2 0.0 77.814883 14.662854 111.464200
13351   1 2 0.0 76.672835 19.014888 112.125328
13352   1 2 0.0 76.161394 14.689213 113.637119
13353   1 2 0.0 77.857692 12.599072 114.460486
13354   1 2 0.0 75.067335 13.602968 116.483931
13355   1 2 0.0 78.702035 15.600712 113.844547
13356   1 2 0.0 79.053176 18.538968 111.801108
13357   1 1 0.0 72.742995 8.734361 125.127860
13358   1 1 0.0 77.264150 11.094280 120.396402
13359   1 1 0.0 71.767166 9.260627 121.649073
13360   1 1 0.0 74.653128 8.863630 120.460303
13361   1 2 0.0 73.786245 10.146240 124.489398
13362   1 2 0.0 74.861925 9.103525 118.562780
13363   1 2 0.0 74.684684 13.599419 119.223908
13364   1 2 0.0 73.252976 9.485631 120.735699
13365   1 2 0.0 74.458934 7.079018 121.559066
13366   1 2 0.0 71.950517 8.660710 123.582511
13367   1 2 0.0 75.930359 9.828139 120.943127
13368   1 2 0.0 76.906511 12.621663 118.899688
13369   1 1 0.0 68.631502 4.407472 132.226440
13370   1 1 0.0 73.555022 5.737513 127.494982
13371   1 1 0.0 67.792030 5.131685 128.747653
13372   1 1 0.0 70.524605 4.122024 127.558883
13373   1 2 0.0 69.954528 5.561324 131.587978
13374   1 2 0.0 70.780198 4.311280 125.661360
13375   1 2 0.0 71.576094 8.739714 126.322488
13376   1 2 0.0 69.291415 5.031173 127.834279
13377   1 2 0.0 69.950349 2.421207 128.657646
13378   1 2 0.0 67.841775 4.506349 130.681091
13379   1 2 0.0 71.979694 4.788592 128.041707
13380   1 2 0.0 73.534976 7.306081 125.998268
13381   1 1 0.0 63.684088 1.068396 139.325020
13382   1 1 0.0 68.778554 1.306043 134.593562
13383   1 1 0.0 63.020429 1.956515 135.846233
13384   1 1 0.0 65.471180 0.381647 134.657463
13385   1 2 0.0 65.224703 1.909987 138.686558
13386   1 2 0.0 65.761555 0.511369 132.759940
13387   1 2 0.0 67.493179 4.664194 133.421068
13388   1 2 0.0 64.462914 1.535212 134.932859
13389   1 2 0.0 64.543852 -1.155433 135.756226
13390   1 2 0.0 62.934231 1.335154 137.779671
13391   1 2 0.0 67.035733 0.718944 135.140287
13392   1 2 0.0 69.097043 2.842068 133.096848
13393   1 1 0.0 58.133295 -1.125922 146.423600
13394   1 1 0.0 63.159252 -1.991838 141.692142
13395   1 1 0.0 57.676644 -0.115641 142.944813
13396   1 1 0.0 59.730377 -2.181692 141.756043
13397   1 2 0.0 59.819087 -0.636149 145.785138
13398   1 2 0.0 60.041886 -2.117601 139.858520
13399   1 2 0.0 62.627847 1.564420 140.519648
13400   1 2 0.0 58.994427 -0.837933 142.031439
13401   1 2 0.0 58.493566 -3.482787 142.854806
13402   1 2 0.0 57.458554 -0.703821 144.878251
13403   1 2 0.0 61.330856 -2.189520 142.238867
13404   1 2 0.0 63.801306 -0.560554 140.195428
13405   1 1 0.0 52.240026 -2.072343 153.522180
13406   1 1 0.0 56.961240 -4.001122 148.790722
13407   1 1 0.0 52.011846 -0.987386 150.043393
13408   1 1 0.0 53.572030 -3.447510 148.854623
13409   1 2 0.0 53.991756 -1.957408 152.883718
13410   1 2 0.0 53.890031 -3.452063 146.957100
13411   1 2 0.0 57.208782 -0.413910 147.618228
13412   1 2 0.0 53.142988 -1.976716 149.130019
13413   1 2 0.0 52.083869 -4.451465 149.953386
13414   1 2 0.0 51.672114 -1.514739 151.976831
13415   1 2 0.0 55.133209 -3.800096 149.337447
13416   1 2 0.0 57.896680 -2.741853 147.294008
13417   1 1 0.0 46.281280 -1.726382 160.620760
13418   1 1 0.0 50.475842 -4.627366 155.889302
13419   1 1 0.0 46.292297 -0.617745 157.141973
13420   1 1 0.0 47.285600 -3.356309 155.953203
13421   1 2 0.0 48.016614 -1.991688 159.982298
13422   1 2 0.0 47.595146 -3.429292 154.055680
13423   1 2 0.0 51.490695 -1.177810 154.716808
13424   1 2 0.0 47.183632 -1.827613 156.228599
13425   1 2 0.0 45.616036 -4.015936 157.051966
13426   1 2 0.0 45.846892 -1.059485 159.075411
13427   1 2 0.0 48.734098 -4.037080 156.436027
13428   1 2 0.0 51.660700 -3.599301 154.392588
13429   1 1 0.0 40.537136 -0.104301 167.719340
13430   1 1 0.0 44.007889 -3.841135 162.987882
13431   1 1 0.0 40.786832 0.975908 164.240553
13432   1 1 0.0 41.166565 -1.912377 163.051783
13433   1 2 0.0 42.174508 -0.737377 167.080878
13434   1 2 0.0 41.453107 -2.050359 161.154260
13435   1 2 0.0 45.742353 -0.691373 161.815388
13436   1 2 0.0 41.396464 -0.397630 163.327179
13437   1 2 0.0 39.394073 -2.196671 164.150546
13438   1 2 0.0 40.256689 0.640545 166.173991
13439   1 2 0.0 42.434299 -2.889334 163.534607
13440   1 2 0.0 45.386474 -3.092596 161.491168
13441   1 1 0.0 35.277585 2.717659 174.817920
13442   1 1 0.0 37.861393 -1.679384 170.086462
13443   1 1 0.0 35.754223 3.718666 171.339133
13444   1 1 0.0 35.502538 0.816419 170.150363
13445   1 2 0.0 36.740033 1.746569 174.179458
13446   1 2 0.0 35.752607 0.619922 168.252840
13447   1 2 0.0 40.233944 1.022536 168.913968
13448   1 2 0.0 36.053497 2.246018 170.425759
13449   1 2 0.0 33.710429 0.920820 171.249126
13450   1 2 0.0 35.164261 3.505443 173.272571
13451   1 2 0.0 36.529921 -0.410806 170.633187
13452   1 2 0.0 39.368907 -1.245555 168.589748
13453   1 1 0.0 30.749840 6.606857 181.916500
13454   1 1 0.0 32.325258 1.756279 177.185042
13455   1 1 0.0 31.431017 7.481612 178.437713
13456   1 1 0.0 30.559743 4.701816 177.248943
13457   1 2 0.0 31.968625 5.343396 181.278038
13458   1 2 0.0 30.761586 4.456042 175.351420
13459   1 2 0.0 35.224378 3.883359 176.012548
13460   1 2 0.0 31.405867 5.979072 177.524339
13461   1 2 0.0 28.832253 5.190005 178.347706
13462   1 2 0.0 30.808965 7.400551 180.371151
13463   1 2 0.0 31.298485 3.282008 177.731767
13464   1 2 0.0 33.890843 1.855007 175.688328
13465   1 1 0.0 27.166717 11.380490 189.015080
13466   1 1 0.0 27.659696 6.304367 184.283622
13467   1 1 0.0 28.020416 12.087877 185.536293
13468   1 1 0.0 26.570507 9.561190 184.347523
13469   1 2 0.0 28.084554 9.884045 188.376618
13470   1 2 0.0 26.714636 9.277690 182.450000
13471   1 2 0.0 30.949119 7.756629 183.111128
13472   1 2 0.0 27.672025 10.626070 184.622919
13473   1 2 0.0 24.988832 10.410222 185.446286
13474   1 2 0.0 27.395513 12.142788 187.469731
13475   1 2 0.0 26.985885 8.015533 184.830347
13476   1 2 0.0 29.209767 6.063355 182.786908
13477   1 1 0.0 24.696635 16.814184 196.113660
13478   1 1 0.0 24.084003 11.751109 191.382202
13479   1 1 0.0 25.682729 17.320955 192.634873
13480   1 1 0.0 23.722334 15.166138 191.446103
13481   1 2 0.0 25.270381 15.155093 195.475198
13482   1 2 0.0 23.801975 14.858238 189.548580
13483   1 2 0.0 27.609117 12.460291 190.209708
13484   1 2 0.0 25.027472 15.968588 191.721499
13485   1 2 0.0 22.360817 16.336105 192.544866
13486   1 2 0.0 25.084347 17.509256 194.568311
13487   1 2 0.0 23.794824 13.567282 191.928927
13488   1 2 0.0 25.545701 11.181683 189.885488
13489   1 1 0.0 23.455693 22.652541 203.212240
13490   1 1 0.0 21.766246 17.840491 198.480782
13491   1 1 0.0 24.527834 22.934874 199.733453
13492   1 1 0.0 22.149096 21.253211 198.544683
13493   1 2 0.0 23.658382 20.908784 202.573778
13494   1 2 0.0 22.160506 20.935382 196.647160
13495   1 2 0.0 25.361360 17.773261 197.308288
13496   1 2 0.0 23.596508 21.755513 198.820079
13497   1 2 0.0 21.071732 22.689121 199.643446
13498   1 2 0.0 23.984098 23.247716 201.666891
13499   1 2 0.0 21.875292 19.676307 199.027507
13500   1 2 0.0 23.070867 16.969417 196.984068
13501   1 1 0.0 23.502219 28.621139 4.988944
13502   1 1 0.0 20.815365 24.286296 0.257486
13503   1 1 0.0 24.610013 28.665766 1.510157
13504   1 1 0.0 21.924741 27.536298 0.321387
13505   1 2 0.0 23.324324 26.874679 4.350482
13506   1 2 0.0 21.867382 27.223480 203.745740
13507   1 2 0.0 24.311500 23.445813 204.406868
13508   1 2 0.0 23.446395 27.714845 0.596783
13509   1 2 0.0 21.182169 29.170660 1.420150
13510   1 2 0.0 24.146480 29.088444 3.443595
13511   1 2 0.0 21.317511 26.055465 0.804211
13512   1 2 0.0 21.901589 23.154517 204.082648
13513   1 1 0.0 24.834027 34.439440 12.087524
13514   1 1 0.0 21.276056 30.785552 7.356066
13515   1 1 0.0 25.925404 34.244262 8.608737
13516   1 1 0.0 23.059813 33.720079 7.419967
13517   1 2 0.0 24.283909 32.772365 11.449062
13518   1 2 0.0 22.936382 33.426974 5.522444
13519   1 2 0.0 24.508883 29.211322 6.183572
13520   1 2 0.0 24.584187 33.566476 7.695363
13521   1 2 0.0 22.686936 35.476073 8.518730
13522   1 2 0.0 25.563862 34.756909 10.542175
13523   1 2 0.0 22.147698 32.404920 7.902791
13524   1 2 0.0 22.092827 29.446265 5.859352
13525   1 1 0.0 27.388518 39.833967 19.186104
13526   1 1 0.0 23.126665 37.032778 14.454646
13527   1 1 0.0 28.412180 39.408158 15.707317
13528   1 1 0.0 25.500960 39.513897 14.518547
13529   1 2 0.0 26.492034 38.324634 18.547642
13530   1 2 0.0 25.317260 39.254283 12.621024
13531   1 2 0.0 25.944231 34.798793 13.282152
13532   1 2 0.0 26.956404 39.035365 14.793943
13533   1 2 0.0 25.515305 41.308986 15.617310
13534   1 2 0.0 28.169623 39.986678 17.640755
13535   1 2 0.0 24.326834 38.426228 15.001371
13536   1 2 0.0 23.635591 35.548932 12.957932
13537   1 1 0.0 31.045623 44.551161 26.284684
13538   1 1 0.0 26.280206 42.734334 21.553226
13539   1 1 0.0 31.953456 43.914736 22.805897
13540   1 1 0.0 29.133443 44.645426 21.617127
13541   1 2 0.0 29.844910 43.270513 25.646222
13542   1 2 0.0 28.898106 44.431506 19.719604
13543   1 2 0.0 28.550079 39.945599 20.380732
13544   1 2 0.0 30.451547 43.864459 21.892523
13545   1 2 0.0 29.534335 46.395237 22.715890
13546   1 2 0.0 31.841284 44.531936 24.739335
13547   1 2 0.0 27.752492 43.836372 22.099951
13548   1 2 0.0 26.457369 41.175675 20.056512
13549   1 1 0.0 35.633449 48.369301 33.383264
13550   1 1 0.0 30.588456 47.622233 28.651806
13551   1 1 0.0 36.382781 47.552173 29.904477
13552   1 1 0.0 33.786524 48.873472 28.715707
13553   1 2 0.0 34.184944 47.377533 32.744802
13554   1 2 0.0 33.510613 48.715299 26.818184
13555   1 2 0.0 32.203946 44.409826 27.479312
13556   1 2 0.0 34.905334 47.826775 28.991103
13557   1 2 0.0 34.555120 50.495757 29.814470
13558   1 2 0.0 36.406267 48.179045 31.837915
13559   1 2 0.0 32.263656 48.381059 29.198531
13560   1 2 0.0 30.425527 46.062022 27.155092
13561   1 1 0.0 40.936354 51.108925 40.481844
13562   1 1 0.0 35.848915 51.466729 35.750386
13563   1 1 0.0 41.491966 50.149501 37.003057
13564   1 1 0.0 39.241495 51.999303 35.814287
13565   1 2 0.0 39.308141 50.452651 39.843382
13566   1 2 0.0 38.937978 51.904312 33.916764
13567   1 2 0.0 36.734088 47.981642 34.577892
13568   1 2 0.0 40.108423 50.736074 36.089683
13569   1 2 0.0 40.341669 53.417811 36.913050
13570   1 2 0.0 41.650004 50.756579 38.936495
13571   1 2 0.0 37.648290 51.846676 36.297111
13572   1 2 0.0 35.353552 49.978300 34.253672
13573   1 1 0.0 47.203856 47.391230 45.296818
13574   1 1 0.0 42.248448 49.024976 41.341054
13575   1 1 0.0 47.622686 46.362404 42.001932
13576   1 1 0.0 45.333827 48.764959 41.468475
13577   1 2 0.0 45.941197 47.100002 44.420516
13578   1 2 0.0 45.048766 48.741676 39.711032
13579   1 2 0.0 43.869590 45.414052 38.948326
13580   1 2 0.0 46.277378 47.294527 41.359195
13581   1 2 0.0 46.215310 49.949112 42.826485
13582   1 2 0.0 47.762103 46.905867 43.885676
13583   1 2 0.0 43.903967 48.977439 41.882995
13584   1 2 0.0 41.970990 47.694781 39.559462
13585   1 1 0.0 52.024042 47.660142 52.395398
13586   1 1 0.0 47.537205 50.323501 48.439634
13587   1 1 0.0 52.211294 46.565227 49.100512
13588   1 1 0.0 50.494033 49.404622 48.567055
13589   1 2 0.0 50.728292 47.647891 51.519096
13590   1 2 0.0 50.210654 49.443323 46.809612
13591   1 2 0.0 48.342008 46.448044 46.046906
13592   1 2 0.0 51.098497 47.765389 48.457775
13593   1 2 0.0 51.610013 50.370965 49.925065
13594   1 2 0.0 52.464563 47.065870 50.984256
13595   1 2 0.0 49.143572 49.920277 48.981575
13596   1 2 0.0 46.979579 49.084365 46.658042
13597   1 1 0.0 56.788905 46.883869 59.493978
13598   1 1 0.0 52.981531 50.451656 55.538214
13599   1 1 0.0 56.735775 45.774329 56.199092
13600   1 1 0.0 55.670830 48.917105 55.665635
13601   1 2 0.0 55.520966 47.151171 58.617676
13602   1 2 0.0 55.402451 49.015972 53.908192
13603   1 2 0.0 52.932167 46.493823 53.145486
13604   1 2 0.0 55.907794 47.186120 55.556355
13605   1 2 0.0 56.968852 49.620217 57.023645
13606   1 2 0.0 57.090993 46.208621 58.082836
13607   1 2 0.0 54.463242 49.711698 56.080155
13608   1 2 0.0 52.169947 49.361823 53.756622
13609   1 1 0.0 61.274481 45.098899 66.592558
13610   1 1 0.0 58.325529 49.403417 62.636794
13611   1 1 0.0 60.983468 44.026885 63.297672
13612   1 1 0.0 60.620893 47.325322 62.764215
13613   1 2 0.0 60.093950 45.633190 65.716256
13614   1 2 0.0 60.380130 47.479708 61.006772
13615   1 2 0.0 57.424318 45.549238 60.244066
13616   1 2 0.0 60.479220 45.583946 62.654935
13617   1 2 0.0 62.039947 47.732156 64.122225
13618   1 2 0.0 61.423937 44.374413 65.181416
13619   1 2 0.0 59.612939 48.361505 63.178735
13620   1 2 0.0 57.298133 48.514113 60.855202
13621   1 1 0.0 65.269936 42.389130 73.691138
13622   1 1 0.0 63.318014 47.228055 69.735374
13623   1 1 0.0 64.754718 41.405030 70.396252
13624   1 1 0.0 65.111556 44.704093 69.862795
13625   1 2 0.0 64.232302 43.165296 72.814836
13626   1 2 0.0 64.909725 44.906740 68.105352
13627   1 2 0.0 61.607317 43.658687 67.342646
13628   1 2 0.0 64.597904 43.034176 69.753515
13629   1 2 0.0 66.584943 44.795525 71.220805
13630   1 2 0.0 65.259736 41.649459 72.279996
13631   1 2 0.0 64.350612 45.933162 70.277315
13632   1 2 0.0 62.123098 46.581078 67.953782
13633   1 1 0.0 68.587473 38.881928 80.789718
13634   1 1 0.0 67.724328 44.027817 76.833954
13635   1 1 0.0 67.872266 38.031998 77.494832
13636   1 1 0.0 68.931745 41.176621 76.961375
13637   1 2 0.0 67.741507 39.863489 79.913416
13638   1 2 0.0 68.778332 41.418005 75.203932
13639   1 2 0.0 65.284550 40.911031 74.441226
13640   1 2 0.0 68.070257 39.656654 76.852095
13641   1 2 0.0 70.390210 40.948355 78.319385
13642   1 2 0.0 68.418096 38.161839 79.378576
13643   1 2 0.0 68.453577 42.540807 77.375895
13644   1 2 0.0 66.418055 43.653579 75.052362
13645   1 1 0.0 71.071158 34.742143 87.888298
13646   1 1 0.0 71.337359 39.953125 83.932534
13647   1 1 0.0 70.189580 34.066332 84.593412
13648   1 1 0.0 71.901900 36.908709 84.059955
13649   1 2 0.0 70.456623 35.882961 87.011996
13650   1 2 0.0 71.804116 37.177484 82.302512
13651   1 2 0.0 68.283178 37.435417 81.539806
13652   1 2 0.0 70.733069 35.610134 83.950675
13653   1 2 0.0 73.276893 36.371473 85.417965
13654   1 2 0.0 70.750566 34.075482 86.477156
13655   1 2 0.0 71.728984 38.343891 84.474475
13656   1 2 0.0 69.981128 39.869214 82.150942
13657   1 1 0.0 72.604251 30.164355 94.986878
13658   1 1 0.0 73.987286 35.195499 91.031114
13659   1 1 0.0 71.597737 29.694428 91.691992
13660   1 1 0.0 73.882415 32.100959 91.158535
13661   1 2 0.0 72.250032 31.410810 94.110576
13662   1 2 0.0 73.844857 32.384493 89.401092
13663   1 2 0.0 70.462257 33.395210 88.638386
13664   1 2 0.0 72.461180 31.084813 91.049255
13665   1 2 0.0 75.109307 31.280006 92.516545
13666   1 2 0.0 72.147511 29.582457 93.575736
13667   1 2 0.0 74.022880 33.539680 91.573055
13668   1 2 0.0 72.644844 35.405861 89.249522
13669   1 1 0.0 73.114692 25.363734 102.085458
13670   1 1 0.0 75.549555 29.978562 98.129694
13671   1 1 0.0 72.030552 25.121778 98.790572
13672   1 1 0.0 74.780202 26.979350 98.257115
13673   1 2 0.0 73.037438 26.657238 101.209156
13674   1 2 0.0 74.804635 27.264315 96.499672
13675   1 2 0.0 71.719363 28.980310 95.736966
13676   1 2 0.0 73.173364 26.293395 98.147835
13677   1 2 0.0 75.801325 25.913266 99.615125
13678   1 2 0.0 72.543273 24.893949 100.674316
13679   1 2 0.0 75.227443 28.353986 98.671635
13680   1 2 0.0 74.284000 30.473308 96.348102
13681   1 1 0.0 72.578489 20.565922 109.184038
13682   1 1 0.0 75.950734 24.547524 105.228274
13683   1 1 0.0 71.467681 20.563310 105.889152
13684   1 1 0.0 74.553060 21.784612 105.355695
13685   1 2 0.0 72.781831 21.845677 108.307736
13686   1 2 0.0 74.638336 22.057614 103.598252
13687   1 2 0.0 71.995410 24.398230 102.835546
13688   1 2 0.0 72.836146 21.461089 105.246415
13689   1 2 0.0 75.320419 20.523506 106.713705
13690   1 2 0.0 71.919250 20.230332 107.772896
13691   1 2 0.0 75.286058 23.030551 105.770215
13692   1 2 0.0 74.821551 25.303400 103.446682
13693   1 1 0.0 71.020845 15.996430 116.282618
13694   1 1 0.0 75.171967 19.157660 112.326854
13695   1 1 0.0 69.935579 16.233285 112.987732
13696   1 1 0.0 73.211668 16.760912 112.454275
13697   1 2 0.0 71.495226 17.202284 115.406316
13698   1 2 0.0 73.353778 17.009119 110.696832
13699   1 2 0.0 71.277423 19.864340 109.934126
13700   1 2 0.0 71.465377 16.815028 112.344995
13701   1 2 0.0 73.689194 15.364060 113.812285
13702   1 2 0.0 70.304771 15.810809 114.871476
13703   1 2 0.0 74.195968 17.819591 112.868795
13704   1 2 0.0 74.232231 20.139138 110.545262
13705   1 1 0.0 68.514973 11.870037 123.381198
13706   1 1 0.0 73.249859 14.062308 119.425434
13707   1 1 0.0 67.506261 12.335226 120.086312
13708   1 1 0.0 70.819073 12.144378 119.552855
13709   1 2 0.0 69.238096 12.945311 122.504896
13710   1 2 0.0 71.011338 12.356124 117.795412
13711   1 2 0.0 69.599148 15.591747 117.032706
13712   1 2 0.0 69.125486 12.573590 119.443575
13713   1 2 0.0 70.984322 10.677435 120.910865
13714   1 2 0.0 67.775723 11.843109 121.970056
13715   1 2 0.0 72.008412 12.966036 119.967375
13716   1 2 0.0 72.543739 15.223255 117.643842
13717   1 1 0.0 65.178658 8.380695 130.479778
13718   1 1 0.0 70.274754 9.500964 126.524014
13719   1 1 0.0 64.293911 9.052352 127.184892
13720   1 1 0.0 67.487735 8.152000 126.651435
13721   1 2 0.0 66.116533 9.274848 129.603476
13722   1 2 0.0 67.721117 8.317332 124.893992
13723   1 2 0.0 67.039470 11.781273 124.131286
13724   1 2 0.0 65.926455 8.936133 126.542155
13725   1 2 0.0 67.332940 6.683917 128.009445
13726   1 2 0.0 64.450977 8.513725 129.068636
13727   1 2 0.0 68.826209 8.698017 127.065955
13728   1 2 0.0 69.835440 10.786812 124.742422
13729   1 1 0.0 61.168714 5.692412 137.578358
13730   1 1 0.0 66.386489 5.688023 133.622594
13731   1 1 0.0 60.449518 6.538969 134.283472
13732   1 1 0.0 63.374236 4.971431 133.750015
13733   1 2 0.0 62.277259 6.363417 136.702056
13734   1 2 0.0 63.637766 5.082577 131.992572
13735   1 2 0.0 63.718700 8.612023 131.229866
13736   1 2 0.0 62.018647 6.073628 133.640735
13737   1 2 0.0 62.906671 3.571212 135.108025
13738   1 2 0.0 60.486806 5.979148 136.167216
13739   1 2 0.0 64.798934 5.216143 134.164535
13740   1 2 0.0 66.234631 7.038335 131.841002
13741   1 1 0.0 56.673621 3.931546 144.676938
13742   1 1 0.0 61.767825 2.802706 140.721174
13743   1 1 0.0 56.153780 4.913211 141.382052
13744   1 1 0.0 58.671921 2.752166 140.848595
13745   1 2 0.0 57.900731 4.347863 143.800636
13746   1 2 0.0 58.953213 2.803904 139.091152
13747   1 2 0.0 59.792924 6.232959 138.328446
13748   1 2 0.0 57.585740 4.120622 140.739315
13749   1 2 0.0 57.913565 1.485626 142.206605
13750   1 2 0.0 56.069537 4.358511 143.265796
13751   1 2 0.0 60.115878 2.684071 141.263115
13752   1 2 0.0 61.910560 4.154012 138.939582
13753   1 1 0.0 51.904660 3.180861 151.775518
13754   1 1 0.0 56.635852 0.980629 147.819754
13755   1 1 0.0 51.608609 4.251494 148.480632
13756   1 1 0.0 53.601813 1.598518 147.947175
13757   1 2 0.0 53.192658 3.322924 150.899216
13758   1 2 0.0 53.887645 1.588415 146.189732
13759   1 2 0.0 55.446665 4.755905 145.427026
13760   1 2 0.0 52.836094 3.168911 147.837895
13761   1 2 0.0 52.588310 0.525187 149.305185
13762   1 2 0.0 51.406795 3.727987 150.364376
13763   1 2 0.0 54.997159 1.220816 148.361695
13764   1 2 0.0 57.066471 2.269415 146.038162
13765   1 1 0.0 47.085987 3.475644 158.874098
13766   1 1 0.0 51.231786 0.307436 154.918334
13767   1 1 0.0 47.027640 4.584921 155.579212
13768   1 1 0.0 48.402222 1.564711 155.045755
13769   1 2 0.0 48.374332 3.336773 157.997796
13770   1 2 0.0 48.679158 1.493242 153.288312
13771   1 2 0.0 50.884209 4.250285 152.525606
13772   1 2 0.0 47.992955 3.263229 154.936475
13773   1 2 0.0 47.181209 0.735039 156.403765
13774   1 2 0.0 46.717740 4.117213 157.462956
13775   1 2 0.0 49.683371 0.895155 155.460275
13776   1 2 0.0 51.930050 1.473125 153.136742
13777   1 1 0.0 42.444091 4.802037 165.972678
13778   1 1 0.0 45.809634 0.814768 162.016914
13779   1 1 0.0 42.626191 5.897820 162.677792
13780   1 1 0.0 43.317542 2.652334 162.144335
13781   1 2 0.0 43.672229 4.388761 165.096376
13782   1 2 0.0 43.572566 2.522858 160.386892
13783   1 2 0.0 46.320003 4.739866 159.624186
13784   1 2 0.0 43.283964 4.399141 162.035055
13785   1 2 0.0 41.946410 2.105318 163.502345
13786   1 2 0.0 42.222772 5.507894 164.561536
13787   1 2 0.0 44.424277 1.722396 162.558855
13788   1 2 0.0 46.742721 1.802570 160.235322
13789   1 1 0.0 38.197156 7.097697 173.071258
13790   1 1 0.0 40.624253 2.478780 169.115494
13791   1 1 0.0 38.611144 8.128481 169.776372
13792   1 1 0.0 38.586767 4.810266 169.242915
13793   1 2 0.0 39.307360 6.429441 172.194956
13794   1 2 0.0 38.807893 4.628868 167.485472
13795   1 2 0.0 41.968579 6.201636 166.722766
13796   1 2 0.0 38.930457 6.523257 169.133635
13797   1 2 0.0 37.129964 4.571616 170.600925
13798   1 2 0.0 38.133167 7.834665 171.660116
13799   1 2 0.0 39.467069 3.663655 169.657435
13800   1 2 0.0 41.748306 3.242264 167.333902
13801   1 1 0.0 34.544799 10.254721 180.169838
13802   1 1 0.0 35.919370 5.221258 176.214074
13803   1 1 0.0 35.171216 11.172056 176.874952
13804   1 1 0.0 34.432258 7.937077 176.341495
13805   1 2 0.0 35.484887 9.362894 179.293536
13806   1 2 0.0 34.609092 7.712285 174.584052
13807   1 2 0.0 38.034466 8.566888 173.821346
13808   1 2 0.0 35.137061 9.535737 176.232215
13809   1 2 0.0 32.958257 8.018012 177.699505
13810   1 2 0.0 34.641148 10.988160 178.758696
13811   1 2 0.0 35.044749 6.627687 176.756015
13812   1 2 0.0 37.181555 5.724539 174.432482
13813   1 1 0.0 31.658692 14.124720 187.268418
13814   1 1 0.0 31.916127 8.913298 183.312654
13815   1 1 0.0 32.468094 14.885489 183.973532
13816   1 1 0.0 31.049288 11.885800 183.440075
13817   1 2 0.0 32.384476 13.051242 186.392116
13818   1 2 0.0 31.173518 11.628178 181.682632
13819   1 2 0.0 34.702578 11.724447 180.919926
13820   1 2 0.0 32.082076 13.294987 183.330795
13821   1 2 0.0 29.627372 12.282515 184.798085
13822   1 2 0.0 31.910850 14.820157 185.857276
13823   1 2 0.0 31.365180 10.475176 183.854595
13824   1 2 0.0 33.257118 9.132721 181.531062
13825   1 1 0.0 29.674488 18.525794 194.366998
13826   1 1 0.0 28.802688 13.381364 190.411234
13827   1 1 0.0 30.628832 19.094238 191.072112
13828   1 1 0.0 28.596866 16.470832 190.538655
13829   1 2 0.0 30.151855 17.321120 193.490696
13830   1 2 0.0 28.662653 16.192491 188.781212
13831   1 2 0.0 32.129524 15.525901 188.018506
13832   1 2 0.0 29.909095 17.624311 190.429375
13833   1 2 0.0 27.293868 17.164680 191.896665
13834   1 2 0.0 30.070604 19.150541 192.955856
13835   1 2 0.0 28.601311 15.025278 190.953175
13836   1 2 0.0 30.159455 13.306615 188.629642
13837   1 1 0.0 28.685452 23.251079 201.465578
13838   1 1 0.0 26.725394 18.415444 197.509814
13839   1 1 0.0 29.739881 23.600480 198.170692
13840   1 1 0.0 27.190262 21.476665 197.637235
13841   1 2 0.0 28.891965 21.971832 200.589276
13842   1 2 0.0 27.194514 21.190686 195.879792
13843   1 2 0.0 30.436243 19.792569 195.117086
13844   1 2 0.0 28.720255 22.320219 197.527955
13845   1 2 0.0 26.067428 22.435034 198.995245
13846   1 2 0.0 29.206906 23.775772 200.054436
13847   1 2 0.0 26.883052 20.064125 198.051755
13848   1 2 0.0 28.034164 18.050036 195.728222
13849   1 1 0.0 28.738071 28.078474 3.242282
13850   1 1 0.0 25.781883 23.778923 204.608394
13851   1 1 0.0 29.843024 28.192409 205.269272
13852   1 1 0.0 26.895592 26.668010 204.735815
13853   1 2 0.0 28.664022 26.784783 2.365980
13854   1 2 0.0 26.838109 26.387836 202.978372
13855   1 2 0.0 29.702325 24.323907 202.215666
13856   1 2 0.0 28.571434 27.161990 204.626535
13857   1 2 0.0 26.005697 27.845854 0.771949
13858   1 2 0.0 29.360354 28.478450 1.831140
13859   1 2 0.0 26.291165 25.354878 205.150335
13860   1 2 0.0 26.981141 23.140031 202.826802
13861   1 1 0.0 29.829872 32.781078 10.340862
13862   1 1 0.0 26.016503 29.219701 6.385098
13863   1 1 0.0 30.933412 32.654192 7.045976
13864   1 1 0.0 27.726705 31.800860 6.512519
13865   1 2 0.0 29.478742 31.533750 9.464560
13866   1 2 0.0 27.610189 31.539660 4.755076
13867   1 2 0.0 29.962266 28.906929 3.992370
13868   1 2 0.0 29.469626 31.922047 6.403239
13869   1 2 0.0 27.111577 33.142816 7.870529
13870   1 2 0.0 30.523735 33.037537 8.929720
13871   1 2 0.0 26.853472 30.648857 6.927039
13872   1 2 0.0 27.049880 28.337355 4.603506
13873   1 1 0.0 31.909537 37.137855 17.439442
13874   1 1 0.0 27.418225 34.482047 13.483678
13875   1 1 0.0 32.959795 36.776112 14.144556
13876   1 1 0.0 29.644537 36.633956 13.611099
13877   1 2 0.0 31.297830 35.995518 16.563140
13878   1 2 0.0 29.474464 36.404006 11.853656
13879   1 2 0.0 31.203848 33.326220 11.090950
13880   1 2 0.0 31.372616 36.376654 13.501819
13881   1 2 0.0 29.333089 38.076949 14.969109
13882   1 2 0.0 32.642366 37.238743 16.028300
13883   1 2 0.0 28.543542 35.697229 14.025619
13884   1 2 0.0 28.237151 33.397721 11.702086
13885   1 1 0.0 34.879316 40.944025 24.538022
13886   1 1 0.0 29.921167 39.318616 20.582258
13887   1 1 0.0 35.826927 40.364427 21.243136
13888   1 1 0.0 32.558944 40.940129 20.709679
13889   1 2 0.0 34.035784 39.960371 23.661720
13890   1 2 0.0 32.343308 40.752238 18.952236
13891   1 2 0.0 33.368713 37.374061 18.189530
13892   1 2 0.0 34.190956 40.316432 20.600399
13893   1 2 0.0 32.565815 42.416334 22.067689
13894   1 2 0.0 35.616666 40.884600 23.126880
13895   1 2 0.0 31.281937 40.262707 21.124199
13896   1 2 0.0 30.487148 38.083275 18.800666
13897   1 1 0.0 38.599620 44.020686 31.636602
13898   1 1 0.0 33.407681 43.502076 27.680838
13899   1 1 0.0 39.400045 43.250477 28.341716
13900   1 1 0.0 36.332941 44.516977 27.808259
13901   1 2 0.0 37.563912 43.241951 30.760300
13902   1 2 0.0 36.081878 44.379977 26.050816
13903   1 2 0.0 36.355108 40.860192 25.288110
13904   1 2 0.0 37.792177 43.556201 27.698979
13905   1 2 0.0 36.657807 45.957009 29.166269
13906   1 2 0.0 39.306834 43.803741 30.225460
13907   1 2 0.0 34.939945 44.130701 28.222779
13908   1 2 0.0 33.694115 42.173784 25.899246
13909   1 1 0.0 42.895586 46.223228 38.735182
13910   1 1 0.0 37.713892 46.835792 34.779418
13911   1 1 0.0 43.511201 45.298609 35.440296
13912   1 1 0.0 40.789140 47.196379 34.906839
13913   1 2 0.0 41.716383 45.686013 37.858880
13914   1 2 0.0 40.514450 47.116708 33.149396
13915   1 2 0.0 40.022661 43.620756 32.386690
13916   1 2 0.0 42.007011 45.943681 34.797559
13917   1 2 0.0 41.416732 48.532551 36.264849
13918   1 2 0.0 43.539423 45.858960 37.324040
13919   1 2 0.0 39.345629 47.119404 35.321359
13920   1 2 0.0 37.707316 45.476983 32.997826
13921   1 1 0.0 45.783884 62.398503 49.205742
13922   1 1 0.0 41.530268 63.343460 42.464221
13923   1 1 0.0 45.179482 61.560611 46.134462
13924   1 1 0.0 44.639183 63.452857 43.290483
13925   1 2 0.0 43.525048 62.011778 48.702284
13926   1 2 0.0 44.003871 63.466728 41.353747
13927   1 2 0.0 38.546150 59.962349 43.971207
13928   1 2 0.0 44.244405 62.227453 44.604028
13929   1 2 0.0 47.186179 64.502596 43.650949
13930   1 2 0.0 46.051242 62.055659 47.861038
13931   1 2 0.0 43.290999 63.468292 43.405560
13932   1 2 0.0 39.397724 62.043337 41.853536
13933   1 1 0.0 53.871866 62.620761 56.304322
13934   1 1 0.0 49.921876 64.460265 49.562801
13935   1 1 0.0 53.101083 61.932823 53.233042
13936   1 1 0.0 52.981305 63.897046 50.389063
13937   1 2 0.0 51.582767 62.729956 55.800864
13938   1 2 0.0 52.363914 64.047516 48.452327
13939   1 2 0.0 46.279180 61.801763 51.069787
13940   1 2 0.0 52.331701 62.785525 51.702608
13941   1 2 0.0 55.694687 64.373176 50.749529
13942   1 2 0.0 54.059050 62.228352 54.959618
13943   1 2 0.0 51.668132 64.202684 50.504140
13944   1 2 0.0 47.559243 63.650310 48.952116
13945   1 1 0.0 61.817671 61.094643 63.402902
13946   1 1 0.0 58.356968 63.742232 56.661381
13947   1 1 0.0 60.916735 60.588994 60.331622
13948   1 1 0.0 61.223109 62.532870 57.487643
13949   1 2 0.0 59.605903 61.694627 62.899444
13950   1 2 0.0 60.652657 62.812866 55.550907
13951   1 2 0.0 54.226910 61.931297 58.168367
13952   1 2 0.0 60.349213 61.587476 58.801188
13953   1 2 0.0 63.975340 62.413013 57.848109
13954   1 2 0.0 61.915882 60.671113 62.058198
13955   1 2 0.0 60.006669 63.114345 57.602720
13956   1 2 0.0 55.875296 63.460516 56.050696
13957   1 1 0.0 69.247823 57.891881 70.501482
13958   1 1 0.0 66.439070 61.223112 63.759961
13959   1 1 0.0 68.259081 57.592289 67.430202
13960   1 1 0.0 68.977207 59.424450 64.586223
13961   1 2 0.0 67.217346 58.954453 69.998024
13962   1 2 0.0 68.480507 59.820812 62.649487
13963   1 2 0.0 62.015774 60.344862 65.266947
13964   1 2 0.0 67.920093 58.689620 65.899768
13965   1 2 0.0 71.638925 58.714238 64.946689
13966   1 2 0.0 69.252446 57.457138 69.156778
13967   1 2 0.0 67.914677 60.254431 64.701300
13968   1 2 0.0 63.955004 61.482876 63.149276
13969   1 1 0.0 75.813085 53.163014 77.600062
13970   1 1 0.0 73.788302 57.021309 70.858541
13971   1 1 0.0 74.783011 53.083560 74.528782
13972   1 1 0.0 75.879134 54.717890 71.684803
13973   1 2 0.0 74.059337 54.638230 77.096604
13974   1 2 0.0 75.479533 55.211987 69.748067
13975   1 2 0.0 69.279676 57.117024 72.365527
13976   1 2 0.0 74.688491 54.228162 72.998348
13977   1 2 0.0 78.325230 53.450706 72.045269
13978   1 2 0.0 75.723902 52.737492 76.255358
13979   1 2 0.0 75.020455 55.757366 71.799880
13980   1 2 0.0 71.418600 57.810344 70.247856
13981   1 1 0.0 81.204871 47.130312 84.698642
13982   1 1 0.0 80.059227 51.334321 77.957121
13983   1 1 0.0 80.181881 47.274731 81.627362
13984   1 1 0.0 81.604481 48.634411 78.783383
13985   1 2 0.0 79.810283 48.948833 84.195184
13986   1 2 0.0 81.320760 49.203020 76.846647
13987   1 2 0.0 75.677189 52.399503 79.464107
13988   1 2 0.0 80.336271 48.412805 80.096928
13989   1 2 0.0 83.719982 46.869816 79.143849
13990   1 2 0.0 81.026074 46.734011 83.353938
13991   1 2 0.0 80.990014 49.834524 78.898460
13992   1 2 0.0 77.915273 52.615539 77.346436
13993   1 1 0.0 85.169752 40.077329 91.797222
13994   1 1 0.0 84.957096 44.429451 85.055701
13995   1 1 0.0 84.201930 40.438832 88.725942
13996   1 1 0.0 85.884139 41.459955 85.881963
13997   1 2 0.0 84.199873 42.153680 91.293764
13998   1 2 0.0 85.729636 42.076349 83.945227
13999   1 2 0.0 80.907614 46.414033 86.562687
14000   1 2 0.0 84.597973 41.516885 87.195508
14001   1 2 0.0 87.569611 39.280889 86.242429
14002   1 2 0.0 84.909744 39.728877 90.452518
14003   1 2 0.0 85.542766 42.764295 85.997040
14004   1 2 0.0 83.139661 46.142632 84.445016
14005   1 1 0.0 87.521368 32.335575 98.895802
14006   1 1 0.0 88.251695 36.631249 92.154281
14007   1 1 0.0 86.654203 32.897171 95.824522
14008   1 1 0.0 88.516954 33.531740 92.980543
14009   1 2 0.0 87.021785 34.572160 98.392344
14010   1 2 0.0 88.498929 34.166947 91.043807
14011   1 2 0.0 84.725106 39.441950 93.661267
14012   1 2 0.0 87.273285 33.864532 94.294088
14013   1 2 0.0 89.693174 31.040626 93.341009
14014   1 2 0.0 87.192371 32.051350 97.551098
14015   1 2 0.0 88.464720 34.879000 93.095620
14016   1 2 0.0 86.846203 38.695868 91.543596
14017   1 1 0.0 88.149185 24.268934 105.994382
14018   1 1 0.0 89.788168 28.306251 99.252861
14019   1 1 0.0 87.423437 25.004227 102.923102
14020   1 1 0.0 89.379176 25.222415 100.079123
14021   1 2 0.0 88.143380 26.560629 105.490924
14022   1 2 0.0 89.498476 25.846578 98.142387
14023   1 2 0.0 86.950232 31.810960 100.759847
14024   1 2 0.0 88.236459 25.815426 101.392668
14025   1 2 0.0 89.990859 22.536342 100.439589
14026   1 2 0.0 87.766663 24.062296 104.649678
14027   1 2 0.0 89.618536 26.549270 100.194200
14028   1 2 0.0 88.860682 30.625266 98.642176
14029   1 1 0.0 87.023695 16.256561 113.092962
14030   1 1 0.0 89.494297 19.845755 106.351441
14031   1 1 0.0 86.473476 17.130989 110.021682
14032   1 1 0.0 88.430277 16.922541 107.177703
14033   1 2 0.0 87.511941 18.495649 112.589504
14034   1 2 0.0 88.681296 17.506324 105.240967
14035   1 2 0.0 87.478405 23.879742 107.858427
14036   1 2 0.0 87.442223 17.747899 108.491248
14037   1 2 0.0 88.448672 14.167763 107.538169
14038   1 2 0.0 86.605627 16.137222 111.748258
14039   1 2 0.0 88.949981 18.166626 107.292780
14040   1 2 0.0 89.088411 22.310165 105.740756
14041   1 1 0.0 84.197798 8.675060 120.191542
14042   1 1 0.0 87.383895 11.647429 113.450021
14043   1 1 0.0 83.848970 9.647523 117.120262
14044   1 1 0.0 85.714858 9.022237 114.276283
14045   1 2 0.0 85.157147 10.756297 119.688084
14046   1 2 0.0 86.085797 9.538199 112.339547
14047   1 2 0.0 86.284799 16.021084 114.957007
14048   1 2 0.0 84.927910 10.041146 115.589828
14049   1 2 0.0 85.139101 6.328235 114.636749
14050   1 2 0.0 83.763835 8.648629 118.846838
14051   1 2 0.0 86.490478 10.125075 114.391360
14052   1 2 0.0 87.518686 14.141401 112.839336
14053   1 1 0.0 79.804321 1.880783 127.290122
14054   1 1 0.0 83.556156 4.096617 120.548601
14055   1 1 0.0 79.673280 2.905572 124.218842
14056   1 1 0.0 81.360553 1.892838 121.374863
14057   1 2 0.0 81.189680 3.706345 126.786664
14058   1 2 0.0 81.833976 2.316728 119.438127
14059   1 2 0.0 83.425517 8.604367 122.055587
14060   1 2 0.0 80.811698 3.057407 122.688408
14061   1 2 0.0 80.217705 -0.613762 121.735329
14062   1 2 0.0 79.374860 1.948502 125.945418
14063   1 2 0.0 82.355632 2.802594 121.489940
14064   1 2 0.0 84.225290 6.502926 119.937916
14065   1 1 0.0 74.049768 -3.806921 134.388702
14066   1 1 0.0 78.190995 -2.451771 127.647181
14067   1 1 0.0 74.142673 -2.777973 131.317422
14068   1 1 0.0 75.572025 -4.130554 128.473443
14069   1 2 0.0 75.796021 -2.322839 133.885244
14070   1 2 0.0 76.125680 -3.818660 126.536707
14071   1 2 0.0 79.034953 1.978196 129.154167
14072   1 2 0.0 75.287061 -2.875062 129.786988
14073   1 2 0.0 73.915804 -6.331934 128.833909
14074   1 2 0.0 73.644995 -3.648234 133.043998
14075   1 2 0.0 76.739792 -3.456642 128.588520
14076   1 2 0.0 79.363020 -0.246228 127.036496
14077   1 1 0.0 67.204620 -8.120713 141.487282
14078   1 1 0.0 71.540590 -7.689944 134.745761
14079   1 1 0.0 67.517105 -7.135970 138.416002
14080   1 1 0.0 68.621351 -8.764823 135.572023
14081   1 2 0.0 69.229689 -7.047868 140.983824
14082   1 2 0.0 69.229216 -8.579584 133.635287
14083   1 2 0.0 73.319476 -3.545980 136.252747
14084   1 2 0.0 68.613672 -7.477420 136.885568
14085   1 2 0.0 66.529604 -10.557512 135.932489
14086   1 2 0.0 66.843561 -7.878517 140.142578
14087   1 2 0.0 69.906919 -8.358430 135.687100
14088   1 2 0.0 73.160417 -5.788833 134.135076
14089   1 1 0.0 59.590618 -10.857832 148.585862
14090   1 1 0.0 63.917527 -11.371691 141.844341
14091   1 1 0.0 60.107995 -9.963580 145.514582
14092   1 1 0.0 60.835233 -11.792144 142.670603
14093   1 2 0.0 61.799318 -10.246651 148.082404
14094   1 2 0.0 61.468735 -11.742268 140.733867
14095   1 2 0.0 66.547730 -7.708509 143.351327
14096   1 2 0.0 61.105201 -10.533342 143.984148
14097   1 2 0.0 58.406278 -13.091882 143.031069
14098   1 2 0.0 59.290243 -10.543512 147.241158
14099   1 2 0.0 62.178175 -11.672373 142.785680
14100   1 2 0.0 65.909021 -9.864371 141.233656
14101   1 1 0.0 51.565642 -11.889628 155.684442
14102   1 1 0.0 55.680114 -13.323962 148.942921
14103   1 1 0.0 52.263592 -11.127898 152.613162
14104   1 1 0.0 52.579640 -13.070225 149.769183
14105   1 2 0.0 53.854158 -11.768838 155.180984
14106   1 2 0.0 53.209004 -13.158056 147.832447
14107   1 2 0.0 59.038006 -10.313741 150.449907
14108   1 2 0.0 53.114565 -11.899192 151.082728
14109   1 2 0.0 49.927644 -13.815920 150.129649
14110   1 2 0.0 51.340070 -11.517956 154.339738
14111   1 2 0.0 53.916835 -13.242705 149.884260
14112   1 2 0.0 57.949668 -12.281280 148.332236
14113   1 1 0.0 43.506887 -11.167601 162.783022
14114   1 1 0.0 47.215530 -13.454993 156.041501
14115   1 1 0.0 44.352605 -10.574198 159.711742
14116   1 1 0.0 44.242608 -12.538994 156.867763
14117   1 2 0.0 45.767653 -11.542879 162.279564
14118   1 2 0.0 44.838251 -12.760403 154.931027
14119   1 2 0.0 51.143281 -11.239221 157.548487
14120   1 2 0.0 45.017347 -11.510770 158.181308
14121   1 2 0.0 41.492223 -12.695595 157.228229
14122   1 2 0.0 43.366720 -10.756048 161.438318
14123   1 2 0.0 45.511204 -12.995617 156.982840
14124   1 2 0.0 49.656469 -12.925958 155.430816
14125   1 1 0.0 35.793139 -8.725690 169.881602
14126   1 1 0.0 38.921636 -11.758625 163.140081
14127   1 1 0.0 36.746873 -8.328505 166.810322
14128   1 1 0.0 36.216001 -10.223418 163.966343
14129   1 2 0.0 37.919892 -9.579398 169.378144
14130   1 2 0.0 36.749927 -10.568000 162.029607
14131   1 2 0.0 43.234631 -10.441452 164.647067
14132   1 2 0.0 37.194139 -9.386334 165.279888
14133   1 2 0.0 33.496502 -9.783566 164.326809
14134   1 2 0.0 35.744965 -8.293600 168.536898
14135   1 2 0.0 37.356370 -10.942723 164.081420
14136   1 2 0.0 41.419229 -11.768104 162.529396
14137   1 1 0.0 28.786964 -4.678671 176.980182
14138   1 1 0.0 31.188267 -8.314594 170.238661
14139   1 1 0.0 29.803887 -4.496373 173.908902
14140   1 1 0.0 28.877092 -6.232338 171.064923
14141   1 2 0.0 30.679741 -5.970681 176.476724
14142   1 2 0.0 29.324204 -6.683895 169.128187
14143   1 2 0.0 35.683783 -7.957928 171.745647
14144   1 2 0.0 30.012654 -5.625738 172.378468
14145   1 2 0.0 26.316304 -5.216706 171.425389
14146   1 2 0.0 28.833048 -4.246353 175.635478
14147   1 2 0.0 29.835633 -7.180514 171.180000
14148   1 2 0.0 33.625121 -8.862140 169.627976
14149   1 1 0.0 22.817672 0.783234 184.078762
14150   1 1 0.0 24.378914 -3.284777 177.337241
14151   1 1 0.0 23.849986 0.742077 181.007482
14152   1 1 0.0 22.570831 -0.753344 178.163503
14153   1 2 0.0 24.387508 -0.886351 183.575304
14154   1 2 0.0 22.910114 -1.290652 176.226767
14155   1 2 0.0 28.845649 -3.905384 178.844227
14156   1 2 0.0 23.810442 -0.405741 179.477048
14157   1 2 0.0 20.289118 0.790329 178.523969
14158   1 2 0.0 22.955848 1.195460 182.734058
14159   1 2 0.0 23.302490 -1.885825 178.278580
14160   1 2 0.0 26.640489 -4.344656 176.726556
14161   1 1 0.0 18.165838 7.403301 191.177342
14162   1 1 0.0 18.813635 3.094409 184.435821
14163   1 1 0.0 19.165020 7.140623 188.106062
14164   1 1 0.0 17.593629 5.956035 185.262083
14165   1 2 0.0 19.338945 5.434617 190.673884
14166   1 2 0.0 17.809135 5.358231 183.325347
14167   1 2 0.0 23.041640 1.525700 185.942807
14168   1 2 0.0 18.879024 6.028303 186.575628
14169   1 2 0.0 15.698237 7.955193 185.622549
14170   1 2 0.0 18.389611 7.776059 189.832638
14171   1 2 0.0 18.064016 4.692479 185.377160
14172   1 2 0.0 20.793631 1.572016 183.825136
14173   1 1 0.0 15.050110 14.870368 198.275922
14174   1 1 0.0 14.754015 10.523125 191.534401
14175   1 1 0.0 15.969197 14.398515 195.204642
14176   1 1 0.0 14.179428 13.580439 192.360663
14177   1 2 0.0 15.771349 12.695118 197.772464
14178   1 2 0.0 14.261029 12.950238 190.423927
14179   1 2 0.0 18.544561 8.080047 193.041387
14180   1 2 0.0 15.450191 13.373976 193.674208
14181   1 2 0.0 12.759447 15.941117 192.721129
14182   1 2 0.0 15.348962 15.186137 196.931218
14183   1 2 0.0 14.366435 12.245199 192.475740
14184   1 2 0.0 16.359366 8.609775 190.923716
14185   1 1 0.0 13.616936 22.833462 0.052626
14186   1 1 0.0 12.390866 18.652201 198.632981
14187   1 1 0.0 14.412728 22.174613 202.303222
14188   1 1 0.0 12.488706 21.761501 199.459243
14189   1 2 0.0 13.852408 20.553889 204.871044
14190   1 2 0.0 12.432566 21.128523 197.522507
14191   1 2 0.0 15.565787 15.449586 200.139967
14192   1 2 0.0 13.685106 21.286010 200.772788
14193   1 2 0.0 11.610879 24.372739 199.819709
14194   1 2 0.0 13.976821 23.077400 204.029798
14195   1 2 0.0 12.383542 20.417336 199.574320
14196   1 2 0.0 13.546116 16.437826 198.022296
14197   1 1 0.0 13.933680 30.918295 7.151206
14198   1 1 0.0 11.835263 27.099547 0.409685
14199   1 1 0.0 14.568772 30.103418 4.079926
14200   1 1 0.0 12.600932 30.114687 1.235947
14201   1 2 0.0 13.672316 28.641546 6.647748
14202   1 2 0.0 12.409690 29.508684 204.621087
14203   1 2 0.0 14.245330 23.287927 1.916671
14204   1 2 0.0 13.666736 29.392518 2.549492
14205   1 2 0.0 12.306519 32.853749 1.596413
14206   1 2 0.0 14.337681 31.078936 5.806502
14207   1 2 0.0 12.208540 28.824777 1.351024
14208   1 2 0.0 12.486113 24.688228 205.120876
14209   1 1 0.0 15.985454 38.744857 14.249786
14210   1 1 0.0 13.113321 35.468114 7.508265
14211   1 1 0.0 16.429995 37.812254 11.178506
14212   1 1 0.0 14.510831 38.247374 8.334527
14213   1 2 0.0 15.239538 36.577945 13.746328
14214   1 2 0.0 14.193475 37.696830 6.397791
14215   1 2 0.0 14.645254 31.226645 9.015251
14216   1 2 0.0 15.395942 37.312471 9.648072
14217   1 2 0.0 14.813669 40.985517 8.694993
14218   1 2 0.0 16.414582 38.814651 12.905082
14219   1 2 0.0 13.849654 37.072348 8.449604
14220   1 2 0.0 13.229179 32.973191 6.897580
14221   1 1 0.0 19.675818 45.945278 21.348366
14222   1 1 0.0 16.164968 43.364555 14.606845
14223   1 1 0.0 19.908913 44.938783 18.277086
14224   1 1 0.0 18.128631 45.777303 15.433107
14225   1 2 0.0 18.480411 43.990054 20.844908
14226   1 2 0.0 17.700078 45.308095 13.496371
14227   1 2 0.0 16.746761 38.892600 16.113831
14228   1 2 0.0 18.791447 44.673609 16.746652
14229   1 2 0.0 19.014488 48.385827 15.793573
14230   1 2 0.0 20.109904 45.920944 20.003662
14231   1 2 0.0 17.229747 44.772391 15.548184
14232   1 2 0.0 15.740388 40.903297 13.996160
14233   1 1 0.0 24.831315 52.181118 28.446946
14234   1 1 0.0 20.846768 50.417717 21.705425
14235   1 1 0.0 24.842009 51.148039 25.375666
14236   1 1 0.0 23.284286 52.350546 22.531687
14237   1 2 0.0 23.242605 50.529483 27.943488
14238   1 2 0.0 22.764680 51.984729 20.594951
14239   1 2 0.0 20.451075 45.925469 23.212411
14240   1 2 0.0 23.693653 51.129938 23.845232
14241   1 2 0.0 24.711523 54.706843 22.892153
14242   1 2 0.0 25.249955 52.063800 27.102242
14243   1 2 0.0 22.189945 51.562982 22.646764
14244   1 2 0.0 19.901707 48.105809 21.094740
14245   1 1 0.0 31.209622 57.159274 35.545526
14246   1 1 0.0 26.938663 56.296081 28.804005
14247   1 1 0.0 30.997412 56.148170 32.474246
14248   1 1 0.0 29.735467 57.658142 29.630267
14249   1 2 0.0 29.302282 55.888860 35.042068
14250   1 2 0.0 29.149229 57.412910 27.693531
14251   1 2 0.0 25.584083 51.994688 30.310991
14252   1 2 0.0 29.872143 56.377992 30.943812
14253   1 2 0.0 31.637000 59.651460 29.990733
14254   1 2 0.0 31.593139 56.954487 34.200822
14255   1 2 0.0 28.497105 57.124944 29.745344
14256   1 2 0.0 25.517541 54.242189 28.193320
14257   1 1 0.0 38.510941 60.645761 42.644106
14258   1 1 0.0 34.154317 60.723347 35.902585
14259   1 1 0.0 38.085801 59.704155 39.572826
14260   1 1 0.0 37.178949 61.450620 36.728847
14261   1 2 0.0 36.374622 59.816280 42.140648
14262   1 2 0.0 36.553635 61.337499 34.792111
14263   1 2 0.0 31.904520 56.814986 37.409571
14264   1 2 0.0 37.036510 60.171098 38.042392
14265   1 2 0.0 39.465400 62.987266 37.089313
14266   1 2 0.0 38.841308 60.363130 41.299402
14267   1 2 0.0 35.854773 61.196849 36.843924
14268   1 2 0.0 32.323931 59.024010 35.291900
14269   1 1 0.0 43.234710 58.116406 50.671276
14270   1 1 0.0 38.339222 58.775771 45.152811
14271   1 1 0.0 43.242424 56.991407 47.248272
14272   1 1 0.0 41.823001 58.906110 45.417330
14273   1 2 0.0 41.184916 57.673545 50.133571
14274   1 2 0.0 41.375393 58.779712 43.466779
14275   1 2 0.0 37.226220 55.296588 45.058466
14276   1 2 0.0 42.059807 57.644001 46.097184
14277   1 2 0.0 43.701180 60.121013 46.224994
14278   1 2 0.0 43.764960 57.634370 49.142140
14279   1 2 0.0 40.238991 58.958459 45.814362
14280   1 2 0.0 36.997457 57.346458 43.993382
14281   1 1 0.0 50.459707 58.988707 57.769856
14282   1 1 0.0 45.821379 60.687669 52.251391
14283   1 1 0.0 50.224776 57.888484 54.346852
14284   1 1 0.0 49.251376 60.064108 52.515910
14285   1 2 0.0 48.362640 58.998033 57.232151
14286   1 2 0.0 48.787045 60.037150 50.565359
14287   1 2 0.0 43.984688 57.530130 52.157046
14288   1 2 0.0 49.210602 58.780623 53.195764
14289   1 2 0.0 51.347255 60.845667 53.323574
14290   1 2 0.0 50.873605 58.403717 56.240720
14291   1 2 0.0 47.715875 60.456619 52.912942
14292   1 2 0.0 44.203097 59.581130 51.091962
14293   1 1 0.0 57.702909 58.283348 64.868436
14294   1 1 0.0 53.539755 60.942053 59.349971
14295   1 1 0.0 57.236374 57.259615 61.445432
14296   1 1 0.0 56.754749 59.593900 59.614490
14297   1 2 0.0 55.657135 58.744423 64.330731
14298   1 2 0.0 56.295521 59.667650 57.663939
14299   1 2 0.0 51.065703 58.254571 59.255626
14300   1 2 0.0 56.438312 58.349366 60.294344
14301   1 2 0.0 58.969817 59.905380 60.422154
14302   1 2 0.0 57.981000 57.622902 63.339300
14303   1 2 0.0 55.339930 60.308123 60.011522
14304   1 2 0.0 51.721018 60.210297 58.190542
14305   1 1 0.0 64.623863 56.033485 71.967016
14306   1 1 0.0 61.131563 59.526964 66.448551
14307   1 1 0.0 63.947654 55.134360 68.544012
14308   1 1 0.0 63.980442 57.517588 66.713070
14309   1 2 0.0 62.725540 56.924636 71.429311
14310   1 2 0.0 63.547901 57.688579 64.762519
14311   1 2 0.0 58.136439 57.435859 66.354206
14312   1 2 0.0 63.403215 56.370502 67.392924
14313   1 2 0.0 66.210584 57.344347 67.520734
14314   1 2 0.0 64.753077 55.328624 70.437880
14315   1 2 0.0 62.752805 58.519953 67.110102
14316   1 2 0.0 59.197859 59.204387 65.289122
14317   1 1 0.0 70.897266 52.344866 79.065596
14318   1 1 0.0 68.239968 56.508917 73.547131
14319   1 1 0.0 70.043166 51.612611 75.642592
14320   1 1 0.0 70.588826 53.932763 73.811650
14321   1 2 0.0 69.235621 53.624208 78.527891
14322   1 2 0.0 70.203303 54.192959 71.861099
14323   1 2 0.0 64.864551 55.112476 73.452786
14324   1 2 0.0 69.777940 52.937041 74.491504
14325   1 2 0.0 72.729219 53.282945 74.619314
14326   1 2 0.0 70.871530 51.628722 77.536460
14327   1 2 0.0 69.606073 55.176156 74.208682
14328   1 2 0.0 66.282185 56.610680 72.387702
14329   1 1 0.0 76.228251 47.390867 86.164176
14330   1 1 0.0 74.530855 52.029769 80.645711
14331   1 1 0.0 75.236405 46.859901 82.741172
14332   1 1 0.0 76.269289 49.007923 80.910230
14333   1 2 0.0 74.881385 48.998267 85.626471
14334   1 2 0.0 75.948904 49.345093 78.959679
14335   1 2 0.0 70.933799 51.393629 80.551366
14336   1 2 0.0 75.262858 48.210367 81.590084
14337   1 2 0.0 78.219328 47.912071 81.717894
14338   1 2 0.0 76.048773 46.697101 84.635040
14339   1 2 0.0 75.577613 50.433901 81.307262
14340   1 2 0.0 72.641015 52.551089 79.486282
14341   1 1 0.0 80.366245 41.404341 93.262756
14342   1 1 0.0 79.708534 46.300051 87.744291
14343   1 1 0.0 79.283273 41.099619 89.839752
14344   1 1 0.0 80.754833 42.974549 88.008810
14345   1 2 0.0 79.397466 43.264246 92.725051
14346   1 2 0.0 80.514646 43.372846 86.058259
14347   1 2 0.0 76.058910 46.454112 87.649946
14348   1 2 0.0 79.600162 42.412647 88.688664
14349   1 2 0.0 82.422861 41.484171 88.816474
14350   1 2 0.0 80.041462 40.765560 91.733620
14351   1 2 0.0 80.386744 44.516087 88.405842
14352   1 2 0.0 77.975465 47.216424 86.584862
14353   1 1 0.0 83.116752 34.666670 100.361336
14354   1 1 0.0 83.529640 39.589077 94.842871
14355   1 1 0.0 81.993557 34.602516 96.938332
14356   1 1 0.0 83.834625 36.116226 95.107390
14357   1 2 0.0 82.571594 36.691660 99.823631
14358   1 2 0.0 83.685925 36.556928 93.156839
14359   1 2 0.0 79.998991 40.526098 94.748526
14360   1 2 0.0 82.585987 35.816388 95.787244
14361   1 2 0.0 85.142240 34.301375 95.915054
14362   1 2 0.0 82.661930 34.112900 98.832200
14363   1 2 0.0 83.807425 37.700868 95.504422
14364   1 2 0.0 82.034800 40.857431 93.683442
14365   1 1 0.0 84.350490 27.494545 107.459916
14366   1 1 0.0 85.814570 32.212280 101.941451
14367   1 1 0.0 83.239865 27.673973 104.036912
14368   1 1 0.0 85.363906 28.755316 102.205970
14369   1 2 0.0 84.254578 29.589439 106.922211
14370   1 2 0.0 85.313682 29.217709 100.255419
14371   1 2 0.0 82.568847 33.888219 101.847106
14372   1 2 0.0 84.079991 28.731635 102.885824
14373   1 2 0.0 86.249647 26.701293 103.013634
14374   1 2 0.0 83.787006 27.051814 105.930780
14375   1 2 0.0 85.678873 30.308578 102.603002
14376   1 2 0.0 84.628222 33.773001 100.782022
14377   1 1 0.0 84.009471 20.225074 114.558496
14378   1 1 0.0 86.455927 24.516392 109.040031
14379   1 1 0.0 82.963618 20.639652 111.135492
14380   1 1 0.0 85.270795 21.237800 109.304550
14381   1 2 0.0 84.367312 22.291407 114.020791
14382   1 2 0.0 85.321409 21.700151 107.353999
14383   1 2 0.0 83.647687 26.852474 108.945686
14384   1 2 0.0 84.011951 21.491391 109.984404
14385   1 2 0.0 85.693030 19.041152 110.112214
14386   1 2 0.0 83.363810 19.914193 113.029360
14387   1 2 0.0 85.913125 22.686676 109.701582
14388   1 2 0.0 85.633832 26.296120 107.880602
14389   1 1 0.0 82.109722 13.199944 121.657076
14390   1 1 0.0 85.423564 16.863141 116.138611
14391   1 1 0.0 81.177799 13.830185 118.234072
14392   1 1 0.0 83.559670 13.917024 116.403130
14393   1 2 0.0 82.904497 15.140592 121.119371
14394   1 2 0.0 83.708742 14.357601 114.452579
14395   1 2 0.0 83.184803 19.749564 116.044266
14396   1 2 0.0 82.385065 14.435966 117.082984
14397   1 2 0.0 83.498552 11.680999 117.210794
14398   1 2 0.0 81.412233 13.035524 120.127940
14399   1 2 0.0 84.499171 15.193412 116.800162
14400   1 2 0.0 85.004363 18.778223 114.979182
14401   1 1 0.0 78.740537 6.749356 128.755656
14402   1 1 0.0 82.766005 9.612251 123.237191
14403   1 1 0.0 77.966348 7.565637 125.332652
14404   1 1 0.0 80.310957 7.137085 123.501710
14405   1 2 0.0 79.934889 8.473103 128.217951
14406   1 2 0.0 80.551480 7.535179 121.551159
14407   1 2 0.0 81.201951 12.913345 123.142846
14408   1 2 0.0 79.275801 7.896986 124.181564
14409   1 2 0.0 79.769359 4.966782 124.309374
14410   1 2 0.0 78.024004 6.739125 127.226520
14411   1 2 0.0 81.503471 8.180991 123.898742
14412   1 2 0.0 82.769402 11.572674 122.077762
14413   1 1 0.0 74.060278 1.176505 135.854236
14414   1 1 0.0 78.608164 3.104534 130.335771
14415   1 1 0.0 73.480211 2.140458 132.431232
14416   1 1 0.0 75.677356 1.216659 130.600290
14417   1 2 0.0 75.598070 2.602330 135.316531
14418   1 2 0.0 75.998025 1.553558 128.649739
14419   1 2 0.0 77.792331 6.665138 130.241426
14420   1 2 0.0 74.830304 2.181802 131.280144
14421   1 2 0.0 74.680734 -0.785912 131.407954
14422   1 2 0.0 73.358379 1.320944 134.325100
14423   1 2 0.0 77.066831 1.979017 130.997322
14424   1 2 0.0 79.033998 5.018152 129.176342
14425   1 1 0.0 68.288930 -3.256670 142.952816
14426   1 1 0.0 73.145470 -2.354130 137.434351
14427   1 1 0.0 67.930250 -2.190352 139.529812
14428   1 1 0.0 69.876658 -3.565978 137.698870
14429   1 2 0.0 70.097880 -2.195784 142.415111
14430   1 2 0.0 70.262401 -3.306108 135.748319
14431   1 2 0.0 73.116206 1.298627 137.340006
14432   1 2 0.0 69.257525 -2.440957 138.378724
14433   1 2 0.0 68.471857 -5.306690 138.506534
14434   1 2 0.0 67.634657 -2.964349 141.423680
14435   1 2 0.0 71.397784 -3.121001 138.095902
14436   1 2 0.0 73.973727 -0.577262 136.274922
14437   1 1 0.0 61.697762 -6.341796 150.051396
14438   1 1 0.0 66.634685 -6.507166 144.532931
14439   1 1 0.0 61.577329 -5.223234 146.628392
14440   1 1 0.0 63.181513 -6.986028 144.797450
14441   1 2 0.0 63.692846 -5.695714 149.513691
14442   1 2 0.0 63.614199 -6.815402 142.846899
14443   1 2 0.0 67.393365 -2.933947 144.438586
14444   1 2 0.0 62.819399 -5.754009 145.477304
14445   1 2 0.0 61.434562 -8.383062 145.605114
14446   1 2 0.0 61.121868 -5.915333 148.522260
14447   1 2 0.0 64.762794 -6.879348 145.194482
14448   1 2 0.0 67.826434 -4.950566 143.373502
14449   1 1 0.0 54.596578 -7.933864 157.149976
14450   1 1 0.0 59.381835 -9.159372 151.631511
14451   1 1 0.0 54.720051 -6.815634 153.726972
14452   1 1 0.0 55.906612 -8.882739 151.896030
14453   1 2 0.0 56.684020 -7.732954 156.612271
14454   1 2 0.0 56.365902 -8.809377 149.945479
14455   1 2 0.0 60.892798 -5.833642 151.537166
14456   1 2 0.0 55.818537 -7.601630 152.575884
14457   1 2 0.0 53.899622 -9.870432 152.703694
14458   1 2 0.0 54.126131 -7.393305 155.620840
14459   1 2 0.0 57.473722 -9.119370 152.293062
14460   1 2 0.0 60.881061 -7.896204 150.472082
14461   1 1 0.0 47.319153 -7.958042 164.248556
14462   1 1 0.0 51.727824 -10.186086 158.730091
14463   1 1 0.0 47.680730 -6.892703 160.825552
14464   1 1 0.0 48.393894 -9.166961 158.994610
14465   1 2 0.0 49.400838 -8.211747 163.710851
14466   1 2 0.0 48.858202 -9.194311 157.044059
14467   1 2 0.0 53.920051 -7.264163 158.635746
14468   1 2 0.0 48.583999 -7.896977 159.674464
14469   1 2 0.0 46.221200 -9.698887 159.802274
14470   1 2 0.0 46.976265 -7.328794 162.719420
14471   1 2 0.0 49.873176 -9.735780 159.391642
14472   1 2 0.0 53.464058 -9.275723 157.570662
14473   1 1 0.0 40.207547 -6.413194 171.347136
14474   1 1 0.0 44.032412 -9.539049 165.828671
14475   1 1 0.0 40.790232 -5.450821 167.924132
14476   1 1 0.0 40.996479 -7.825333 166.093190
14477   1 2 0.0 42.185630 -7.109589 170.809431
14478   1 2 0.0 41.443981 -7.952110 164.142639
14479   1 2 0.0 46.802862 -7.158273 165.734326
14480   1 2 0.0 41.455828 -6.626168 166.773044
14481   1 2 0.0 38.760204 -7.876492 166.900854
14482   1 2 0.0 40.008335 -5.724834 169.818000
14483   1 2 0.0 42.318402 -8.699605 166.490222
14484   1 2 0.0 45.924047 -9.024281 164.669242
14485   1 1 0.0 33.596025 -3.371932 178.445716
14486   1 1 0.0 36.657304 -7.248674 172.927251
14487   1 1 0.0 34.372431 -2.557758 175.022712
14488   1 1 0.0 34.062067 -4.920918 173.191770
14489   1 2 0.0 35.377531 -4.478285 177.908011
14490   1 2 0.0 34.471728 -5.141163 171.241219
14491   1 2 0.0 39.875759 -5.520948 172.832906
14492   1 2 0.0 34.769068 -3.848935 173.871624
14493   1 2 0.0 31.867321 -4.488904 173.999434
14494   1 2 0.0 33.549853 -2.656814 176.916580
14495   1 2 0.0 35.164496 -6.059548 173.588802
14496   1 2 0.0 38.615428 -7.153696 171.767822
14497   1 1 0.0 27.795348 1.022796 185.544296
14498   1 1 0.0 29.949152 -3.422615 180.025831
14499   1 1 0.0 28.728980 1.650502 182.121292
14500   1 1 0.0 27.916593 -0.590230 180.290350
14501   1 2 0.0 29.296540 -0.441513 185.006591
14502   1 2 0.0 28.269159 -0.893590 178.339799
14503   1 2 0.0 33.464334 -2.429146 179.931486
14504   1 2 0.0 28.838017 0.304184 180.970204
14505   1 2 0.0 25.866537 0.304652 181.098014
14506   1 2 0.0 27.904385 1.731059 184.015160
14507   1 2 0.0 28.747712 -1.939700 180.687382
14508   1 2 0.0 31.881727 -3.751892 178.866402
14509   1 1 0.0 23.078162 6.564426 192.642876
14510   1 1 0.0 24.223258 1.759292 187.124411
14511   1 1 0.0 24.125139 6.976159 189.219872
14512   1 1 0.0 22.848913 4.963177 187.388930
14513   1 2 0.0 24.228481 4.810987 192.105171
14514   1 2 0.0 23.127812 4.590960 185.438379
14515   1 2 0.0 27.869944 1.971807 187.030066
14516   1 2 0.0 23.941450 5.637982 188.068784
14517   1 2 0.0 21.039904 6.278863 188.196594
14518   1 2 0.0 23.337285 7.232543 191.113740
14519   1 2 0.0 23.369656 3.466295 187.785962
14520   1 2 0.0 26.039448 1.021238 185.964982
14521   1 1 0.0 19.666190 12.992485 199.741456
14522   1 1 0.0 19.748754 8.053483 194.222991
14523   1 1 0.0 20.777300 13.168894 196.318452
14524   1 1 0.0 19.097222 11.478276 194.487510
14525   1 2 0.0 20.411567 11.032334 199.203751
14526   1 2 0.0 19.289344 11.054698 192.536959
14527   1 2 0.0 23.355540 7.475057 194.128646
14528   1 2 0.0 20.309519 11.901755 195.167364
14529   1 2 0.0 17.614288 13.152927 195.295174
14530   1 2 0.0 20.063218 13.589053 198.212320
14531   1 2 0.0 19.283113 9.904341 194.884542
14532   1 2 0.0 21.363193 6.941342 193.063562
14533   1 1 0.0 17.719804 20.004837 1.518160
14534   1 1 0.0 16.735955 15.164114 201.321571
14535   1 1 0.0 18.842821 19.937629 203.417032
14536   1 1 0.0 16.837859 18.648840 201.586090
14537   1 2 0.0 18.025204 17.930105 0.980455
14538   1 2 0.0 16.934175 18.193810 199.635539
14539   1 2 0.0 20.133312 13.821933 201.227226
14540   1 2 0.0 18.112935 18.801088 202.265944
14541   1 2 0.0 15.750704 20.603741 202.393754
14542   1 2 0.0 18.236076 20.501816 205.310900
14543   1 2 0.0 16.680161 17.071831 201.983122
14544   1 2 0.0 18.072759 13.730160 200.162142
14545   1 1 0.0 17.330489 27.271881 8.616740
14546   1 1 0.0 15.326470 22.756964 3.098275
14547   1 1 0.0 18.412628 26.964216 5.193736
14548   1 1 0.0 16.177021 26.137832 3.362794
14549   1 2 0.0 17.181558 25.180087 8.079035
14550   1 2 0.0 16.173004 25.672737 1.412243
14551   1 2 0.0 18.354714 20.714116 3.003930
14552   1 2 0.0 17.454944 26.011693 4.042648
14553   1 2 0.0 15.536743 28.281098 4.170458
14554   1 2 0.0 17.941738 27.645911 7.087604
14555   1 2 0.0 15.683146 24.631872 3.759826
14556   1 2 0.0 16.322807 21.068598 1.938846
14557   1 1 0.0 18.516544 34.452046 15.715320
14558   1 1 0.0 15.586551 30.475150 10.196855
14559   1 1 0.0 19.506942 33.918385 12.292316
14560   1 1 0.0 17.145770 33.593249 10.461374
14561   1 2 0.0 17.920282 32.441511 15.177615
14562   1 2 0.0 17.041608 33.139950 8.510823
14563   1 2 0.0 18.103344 27.827653 10.102510
14564   1 2 0.0 18.366474 33.194651 11.141228
14565   1 2 0.0 16.982464 35.824140 11.269038
14566   1 2 0.0 19.194040 34.685547 14.186184
14567   1 2 0.0 16.338932 32.229123 10.858406
14568   1 2 0.0 16.195589 28.611728 9.037426
14569   1 1 0.0 21.222221 41.207844 22.813900
14570   1 1 0.0 17.503971 37.955894 17.295435
14571   1 1 0.0 22.074327 40.473270 19.390896
14572   1 1 0.0 19.698571 40.664664 17.559954
14573   1 2 0.0 20.206654 39.373068 22.276195
14574   1 2 0.0 19.499160 40.244468 15.609403
14575   1 2 0.0 19.391017 34.828188 17.201090
14576   1 2 0.0 20.804679 40.012343 18.239808
14577   1 2 0.0 20.019913 42.878323 18.367618
14578   1 2 0.0 21.934120 41.289841 21.284764
14579   1 2 0.0 18.616693 39.506490 17.956986
14580   1 2 0.0 17.697085 36.005002 16.136006
14581   1 1 0.0 25.320346 47.221734 29.912480
14582   1 1 0.0 20.988608 44.847580 24.394015
14583   1 1 0.0 25.994108 46.320774 26.489476
14584   1 1 0.0 23.715436 47.019702 24.658534
14585   1 2 0.0 23.933208 45.648956 29.374775
14586   1 2 0.0 23.430149 46.652359 22.707983
14587   1 2 0.0 22.157211 41.386676 24.299670
14588   1 2 0.0 24.654958 46.144319 25.338388
14589   1 2 0.0 24.506322 49.112080 25.466198
14590   1 2 0.0 26.033187 47.148372 28.383344
14591   1 2 0.0 22.409369 46.121917 25.055566
14592   1 2 0.0 20.756719 42.900917 23.234586
14593   1 1 0.0 30.618295 52.211045 37.011060
14594   1 1 0.0 25.876673 50.826280 31.492595
14595   1 1 0.0 31.082045 51.186048 33.588056
14596   1 1 0.0 29.007560 52.359658 31.757114
14597   1 2 0.0 28.924786 50.974191 36.473355
14598   1 2 0.0 28.649806 52.062434 29.806563
14599   1 2 0.0 26.271904 47.194850 31.398250
14600   1 2 0.0 29.736336 51.302358 32.436968
14601   1 2 0.0 30.230816 54.232407 32.564778
14602   1 2 0.0 31.298572 51.985774 35.481924
14603   1 2 0.0 27.538694 51.764460 32.154146
14604   1 2 0.0 25.230682 48.975343 30.333166
14605   1 1 0.0 36.867050 55.941267 44.109640
14606   1 1 0.0 31.938413 55.610978 38.591175
14607   1 1 0.0 37.098990 54.840409 40.686636
14608   1 1 0.0 35.326199 56.433538 38.855694
14609   1 2 0.0 34.946770 55.098472 43.571935
14610   1 2 0.0 34.912795 56.220404 36.905143
14611   1 2 0.0 31.541697 51.979710 38.496830
14612   1 2 0.0 35.809975 55.244018 39.535548
14613   1 2 0.0 36.924329 57.998635 39.663358
14614   1 2 0.0 37.482789 55.574674 42.580504
14615   1 2 0.0 33.763574 56.168904 39.252726
14616   1 2 0.0 30.908683 53.942767 37.431746
14617   1 1 0.0 42.694459 53.425414 50.309127
14618   1 1 0.0 37.564384 54.116523 45.685799
14619   1 1 0.0 43.041002 52.166115 46.798004
14620   1 1 0.0 41.022754 54.173001 45.739301
14621   1 2 0.0 40.962324 52.987236 49.651730
14622   1 2 0.0 40.686093 53.987281 43.848474
14623   1 2 0.0 37.946646 50.587067 44.326324
14624   1 2 0.0 41.702410 52.861305 45.951730
14625   1 2 0.0 42.377002 55.456802 46.856253
14626   1 2 0.0 43.322232 52.869289 48.751373
14627   1 2 0.0 39.419973 54.279150 46.226722
14628   1 2 0.0 36.810168 52.649580 44.160351
14629   1 1 0.0 48.921133 54.524396 57.407707
14630   1 1 0.0 44.060572 56.304917 52.784379
14631   1 1 0.0 48.988123 53.220005 53.896584
14632   1 1 0.0 47.449838 55.614706 52.837881
14633   1 2 0.0 47.135268 54.469832 56.750310
14634   1 2 0.0 47.081062 55.505909 50.947054
14635   1 2 0.0 43.673169 52.776020 51.424904
14636   1 2 0.0 47.830819 54.187354 53.050310
14637   1 2 0.0 49.048949 56.576463 53.954833
14638   1 2 0.0 49.414294 53.846041 55.849953
14639   1 2 0.0 45.907602 56.063798 53.325302
14640   1 2 0.0 43.007920 55.035000 51.258931
14641   1 1 0.0 55.238328 54.255554 64.506287
14642   1 1 0.0 50.875741 57.041797 59.882959
14643   1 1 0.0 55.022616 52.967380 60.995164
14644   1 1 0.0 54.036598 55.637339 59.936461
14645   1 2 0.0 53.482673 54.587169 63.848890
14646   1 2 0.0 53.653041 55.610579 58.045634
14647   1 2 0.0 49.736882 53.679329 58.523484
14648   1 2 0.0 54.100998 54.161422 60.148890
14649   1 2 0.0 55.805409 56.231848 61.053413
14650   1 2 0.0 55.573697 53.486853 62.948533
14651   1 2 0.0 52.627397 56.408266 60.423882
14652   1 2 0.0 49.574131 56.028596 58.357511
14653   1 1 0.0 61.349118 52.631525 71.604867
14654   1 1 0.0 57.689560 56.292528 66.981539
14655   1 1 0.0 60.860843 51.420116 68.093744
14656   1 1 0.0 60.473439 54.239838 67.035041
14657   1 2 0.0 59.706195 53.333732 70.947470
14658   1 2 0.0 60.093127 54.296372 65.144214
14659   1 2 0.0 55.852773 53.254534 65.622064
14660   1 2 0.0 60.218229 52.784727 67.247470
14661   1 2 0.0 62.328810 54.439154 68.151993
14662   1 2 0.0 61.510933 51.808610 70.047113
14663   1 2 0.0 59.263508 55.296362 67.522462
14664   1 2 0.0 56.200170 55.583667 65.456091
14665   1 1 0.0 66.966279 49.728643 78.703447
14666   1 1 0.0 64.181759 54.092328 74.080119
14667   1 1 0.0 66.228392 48.650938 75.192324
14668   1 1 0.0 66.457809 51.487887 74.133621
14669   1 2 0.0 65.513309 50.768436 78.046050
14670   1 2 0.0 66.098620 51.625059 72.242794
14671   1 2 0.0 61.733380 51.521603 72.720644
14672   1 2 0.0 65.894986 50.121977 74.346050
14673   1 2 0.0 68.312534 51.282642 75.250573
14674   1 2 0.0 66.946933 48.890192 77.145693
14675   1 2 0.0 65.504020 52.780351 74.621042
14676   1 2 0.0 62.574596 53.721126 72.554671
14677   1 1 0.0 71.825789 45.683350 85.802027
14678   1 1 0.0 70.047187 50.544613 81.178699
14679   1 1 0.0 70.872973 44.790005 82.290904
14680   1 1 0.0 71.708428 47.510837 81.232201
14681   1 2 0.0 70.631066 47.011856 85.144630
14682   1 2 0.0 71.387244 47.722199 79.341374
14683   1 2 0.0 67.102296 48.561988 79.819224
14684   1 2 0.0 70.864446 46.298330 81.444630
14685   1 2 0.0 73.475329 46.910679 82.349153
14686   1 2 0.0 71.626192 44.868774 84.244273
14687   1 2 0.0 71.055611 48.978490 81.719622
14688   1 2 0.0 68.397791 50.528516 79.653251
14689   1 1 0.0 75.699237 40.685788 92.900607
14690   1 1 0.0 75.010152 45.816136 88.277279
14691   1 1 0.0 74.576276 40.018792 89.389484
14692   1 1 0.0 75.978501 42.495621 88.330781
14693   1 2 0.0 74.818916 42.240563 92.243210
14694   1 2 0.0 75.710419 42.771238 86.439954
14695   1 2 0.0 71.707167 44.514799 86.917804
14696   1 2 0.0 74.893030 41.493507 88.543210
14697   1 2 0.0 77.574529 41.528758 89.447733
14698   1 2 0.0 75.328770 39.933373 91.342853
14699   1 2 0.0 75.657340 44.069480 88.818202
14700   1 2 0.0 73.396051 46.155901 86.751831
14701   1 1 0.0 78.404560 34.970855 99.999187
14702   1 1 0.0 78.837382 40.129147 95.375859
14703   1 1 0.0 77.164237 34.561560 96.488064
14704   1 1 0.0 79.067323 36.677967 95.429361
14705   1 2 0.0 77.880019 36.678821 99.341790
14706   1 2 0.0 78.864943 37.004884 93.538534
14707   1 2 0.0 75.331552 39.570265 94.016384
14708   1 2 0.0 77.791382 35.933349 95.641790
14709   1 2 0.0 80.417460 35.389844 96.546313
14710   1 2 0.0 77.880636 34.315968 98.441433
14711   1 2 0.0 79.092914 38.284055 95.916782
14712   1 2 0.0 77.334441 40.808804 93.850411
14713   1 1 0.0 79.814601 28.807170 107.097767
14714   1 1 0.0 81.348985 33.750952 102.474439
14715   1 1 0.0 78.515214 28.674813 103.586644
14716   1 1 0.0 80.829710 30.331321 102.527941
14717   1 2 0.0 79.670495 30.588048 106.440370
14718   1 2 0.0 80.702546 30.694173 100.637114
14719   1 2 0.0 77.805095 33.960793 101.114964
14720   1 2 0.0 79.423274 29.879198 102.740370
14721   1 2 0.0 81.870497 28.782485 103.644893
14722   1 2 0.0 79.161846 28.280592 105.540013
14723   1 2 0.0 81.200850 31.894149 103.015362
14724   1 2 0.0 80.027848 34.738555 100.948991
14725   1 1 0.0 79.863083 22.484443 114.196347
14726   1 1 0.0 82.426909 26.981343 109.573019
14727   1 1 0.0 78.565707 22.635245 110.685224
14728   1 1 0.0 81.182827 23.753994 109.626521
14729   1 2 0.0 80.106185 24.254526 113.538950
14730   1 2 0.0 81.136854 24.135726 107.735694
14731   1 2 0.0 79.011531 27.950045 108.213544
14732   1 2 0.0 79.712000 23.615617 109.838950
14733   1 2 0.0 81.865342 22.017243 110.743473
14734   1 2 0.0 79.112178 22.110924 112.638593
14735   1 2 0.0 81.882070 25.200104 110.113942
14736   1 2 0.0 81.349672 28.230473 108.047571
14737   1 1 0.0 78.547728 16.299860 121.294927
14738   1 1 0.0 82.020488 20.138511 116.671599
14739   1 1 0.0 77.313344 16.726733 117.783804
14740   1 1 0.0 80.110074 17.255139 116.725101
14741   1 2 0.0 79.166611 17.975949 120.637530
14742   1 2 0.0 80.147454 17.637807 114.834274
14743   1 2 0.0 78.894155 21.820543 115.312124
14744   1 2 0.0 78.643990 17.437012 116.937530
14745   1 2 0.0 80.402238 15.412106 117.842053
14746   1 2 0.0 77.733968 16.096957 119.737173
14747   1 2 0.0 81.104556 18.516559 117.212522
14748   1 2 0.0 81.237786 21.590455 115.146151
14749   1 1 0.0 75.930360 10.544114 128.393507
14750   1 1 0.0 80.148827 13.544088 123.770179
14751   1 1 0.0 74.816987 11.226994 124.882384
14752   1 1 0.0 77.661875 11.140219 123.823681
14753   1 2 0.0 76.895936 12.047428 127.736110
14754   1 2 0.0 77.780850 11.505838 121.932854
14755   1 2 0.0 77.458485 15.860389 122.410704
14756   1 2 0.0 76.269444 11.633794 124.036110
14757   1 2 0.0 77.549955 9.277532 124.940633
14758   1 2 0.0 75.091995 10.521364 126.835753
14759   1 2 0.0 78.904851 12.157660 124.311102
14760   1 2 0.0 79.697447 15.130600 122.244731
14761   1 1 0.0 72.134005 5.487740 135.492087
14762   1 1 0.0 76.899897 7.508031 130.868759
14763   1 1 0.0 71.193975 6.394530 131.980964
14764   1 1 0.0 73.953301 5.696654 130.922261
14765   1 2 0.0 73.400888 6.747620 134.834690
14766   1 2 0.0 74.148280 6.028038 129.031434
14767   1 2 0.0 74.772000 10.349728 129.509284
14768   1 2 0.0 72.699971 6.478731 131.134690
14769   1 2 0.0 73.442558 3.901863 132.039213
14770   1 2 0.0 71.310439 5.646212 133.934333
14771   1 2 0.0 75.386348 6.422293 131.409682
14772   1 2 0.0 76.801057 9.154541 129.343311
14773   1 1 0.0 67.337100 1.368403 142.590667
14774   1 1 0.0 72.426408 2.314052 137.967339
14775   1 1 0.0 66.614597 2.456481 139.079544
14776   1 1 0.0 69.158666 1.180306 138.020841
14777   1 2 0.0 68.845744 2.325631 141.933270
14778   1 2 0.0 69.420484 1.461880 136.130014
14779   1 2 0.0 70.960973 5.547577 136.607864
14780   1 2 0.0 68.103348 2.214125 138.233270
14781   1 2 0.0 68.273107 -0.462227 139.137793
14782   1 2 0.0 66.567044 1.700649 141.032913
14783   1 2 0.0 70.714427 1.580035 138.508262
14784   1 2 0.0 72.684753 3.943169 136.441891
14785   1 1 0.0 61.765115 -1.620276 149.689247
14786   1 1 0.0 66.938627 -1.793719 145.065919
14787   1 1 0.0 61.294098 -0.402053 146.178124
14788   1 1 0.0 63.503332 -2.196544 145.119421
14789   1 2 0.0 63.444609 -1.010694 149.031850
14790   1 2 0.0 63.819683 -1.978016 143.228594
14791   1 2 0.0 66.204533 1.679650 143.706444
14792   1 2 0.0 62.695628 -0.959575 145.331850
14793   1 2 0.0 62.284579 -3.609616 146.236373
14794   1 2 0.0 61.084763 -1.129873 148.131493
14795   1 2 0.0 65.108681 -2.141512 145.606842
14796   1 2 0.0 67.542013 -0.258568 143.540471
14797   1 1 0.0 55.679948 -3.337823 156.787827
14798   1 1 0.0 60.694494 -4.622204 152.164499
14799   1 1 0.0 55.482556 -2.046714 153.276704
14800   1 1 0.0 57.253115 -4.275175 152.218001
14801   1 2 0.0 57.451351 -3.104537 156.130430
14802   1 2 0.0 57.609129 -4.129963 150.327174
14803   1 2 0.0 60.726245 -1.072249 150.805024
14804   1 2 0.0 56.730989 -2.893196 152.430430
14805   1 2 0.0 55.758454 -5.392367 153.334953
14806   1 2 0.0 55.121278 -2.712313 155.230073
14807   1 2 0.0 58.832597 -4.567427 152.705422
14808   1 2 0.0 61.614561 -3.253175 150.639051
14809   1 1 0.0 49.367618 -3.703506 163.886407
14810   1 1 0.0 53.987500 -6.038456 159.263079
14811   1 1 0.0 49.453130 -2.400198 160.375284
14812   1 1 0.0 50.701792 -4.957884 159.316581
14813   1 2 0.0 51.147669 -3.857482 163.229010
14814   1 2 0.0 51.080736 -4.892814 157.425754
14815   1 2 0.0 54.783606 -2.578773 157.903604
14816   1 2 0.0 50.489786 -3.495853 159.529010
14817   1 2 0.0 49.001476 -5.726686 160.433533
14818   1 2 0.0 48.956890 -2.972290 162.328653
14819   1 2 0.0 52.181167 -5.583684 159.804002
14820   1 2 0.0 55.181003 -4.899898 157.737631
14821   1 1 0.0 43.124824 -2.700139 170.984987
14822   1 1 0.0 47.132895 -5.975909 166.361659
14823   1 1 0.0 43.489220 -1.445890 167.473864
14824   1 1 0.0 44.157294 -4.212583 166.415161
14825   1 2 0.0 44.829856 -3.234139 170.327590
14826   1 2 0.0 44.541357 -4.230714 164.524334
14827   1 2 0.0 48.655935 -2.769113 165.002184
14828   1 2 0.0 44.265373 -2.739220 166.627590
14829   1 2 0.0 42.331243 -4.596859 167.532113
14830   1 2 0.0 42.881343 -1.897585 169.427233
14831   1 2 0.0 45.467027 -5.142516 166.902582
14832   1 2 0.0 48.543736 -5.121336 164.836211
14833   1 1 0.0 37.244993 -0.374881 178.083567
14834   1 1 0.0 40.452863 -4.437500 173.460239
14835   1 1 0.0 37.871146 0.771355 174.572444
14836   1 1 0.0 37.927232 -2.074303 173.513741
14837   1 2 0.0 38.794865 -1.263807 177.426170
14838   1 2 0.0 38.298361 -2.174782 171.622914
14839   1 2 0.0 42.631250 -1.634320 172.100764
14840   1 2 0.0 38.350315 -0.658859 173.726170
14841   1 2 0.0 36.061275 -2.055990 174.630693
14842   1 2 0.0 37.180204 0.461287 176.525813
14843   1 2 0.0 39.005761 -3.264660 174.001162
14844   1 2 0.0 42.014727 -3.907081 171.934791
14845   1 1 0.0 32.004495 3.162973 185.182147
14846   1 1 0.0 34.261385 -1.495542 180.558819
14847   1 1 0.0 32.862974 4.147320 181.671024
14848   1 1 0.0 32.304435 1.356451 180.612321
14849   1 2 0.0 33.326358 1.960904 184.524750
14850   1 2 0.0 32.645186 1.178346 178.721494
14851   1 2 0.0 36.992728 0.772266 179.199344
14852   1 2 0.0 33.022637 2.647445 180.824750
14853   1 2 0.0 30.486277 1.776492 181.729273
14854   1 2 0.0 32.121443 3.993453 183.624393
14855   1 2 0.0 33.101067 -0.038379 181.099742
14856   1 2 0.0 35.900861 -1.314207 179.033371
14857   1 1 0.0 27.649648 7.747134 192.280727
14858   1 1 0.0 28.849477 2.711688 187.657399
14859   1 1 0.0 28.700102 8.523325 188.769604
14860   1 1 0.0 27.553190 5.918424 187.710901
14861   1 2 0.0 28.681371 6.288422 191.623330
14862   1 2 0.0 27.847547 5.671065 185.820074
14863   1 2 0.0 32.005397 4.337530 186.297924
14864   1 2 0.0 28.532753 7.024288 187.923330
14865   1 2 0.0 25.868290 6.720449 188.827853
14866   1 2 0.0 27.942835 8.532892 190.722973
14867   1 2 0.0 28.030481 4.384681 188.198322
14868   1 2 0.0 30.489505 2.535415 186.131951
14869   1 1 0.0 24.385142 13.162134 199.379307
14870   1 1 0.0 24.471514 7.986436 194.755979
14871   1 1 0.0 25.578195 13.693686 195.868184
14872   1 1 0.0 23.896820 11.397191 194.809481
14873   1 2 0.0 25.078230 11.515343 198.721910
14874   1 2 0.0 24.130947 11.092204 192.918654
14875   1 2 0.0 27.903673 8.893893 193.396504
14876   1 2 0.0 25.091702 12.265946 195.021910
14877   1 2 0.0 22.424373 12.543502 195.926433
14878   1 2 0.0 24.840788 13.866237 197.821553
14879   1 2 0.0 24.032336 9.796625 195.296902
14880   1 2 0.0 26.035009 7.460841 193.230531
14881   1 1 0.0 22.364417 19.153452 1.156011
14882   1 1 0.0 21.333274 14.080776 201.854559
14883   1 1 0.0 23.643994 19.415381 202.966764
14884   1 1 0.0 21.507184 17.535233 201.908061
14885   1 2 0.0 22.686294 17.395987 0.498614
14886   1 2 0.0 21.670077 17.186953 200.017234
14887   1 2 0.0 24.880350 14.227194 200.495084
14888   1 2 0.0 22.861222 18.126046 202.120490
14889   1 2 0.0 20.316399 18.971952 203.025013
14890   1 2 0.0 22.961106 19.742805 204.920133
14891   1 2 0.0 21.294555 15.943075 202.395482
14892   1 2 0.0 22.746745 13.230562 200.329111
14893   1 1 0.0 21.682453 25.439481 8.254591
14894   1 1 0.0 19.582261 20.708255 3.631263
14895   1 1 0.0 22.988410 25.419474 4.743468
14896   1 1 0.0 20.496602 24.044045 3.684765
14897   1 2 0.0 21.617990 23.653946 7.597194
14898   1 2 0.0 20.580604 23.668844 1.793938
14899   1 2 0.0 23.077533 20.086753 2.271788
14900   1 2 0.0 21.946152 24.329146 3.897194
14901   1 2 0.0 19.643449 25.703642 4.801717
14902   1 2 0.0 22.392138 25.886382 6.696837
14903   1 2 0.0 19.945822 22.535133 4.172186
14904   1 2 0.0 20.779273 19.573386 2.105815
14905   1 1 0.0 22.371305 31.724758 15.353171
14906   1 1 0.0 19.300779 27.557364 10.729843
14907   1 1 0.0 23.642258 31.423757 11.842048
14908   1 1 0.0 20.912573 30.617697 10.783345
14909   1 2 0.0 21.923532 29.995079 14.695774
14910   1 2 0.0 20.913737 30.233208 8.892518
14911   1 2 0.0 22.579958 26.197154 9.370368
14912   1 2 0.0 22.389504 30.583685 10.995774
14913   1 2 0.0 20.437154 32.422165 11.900297
14914   1 2 0.0 23.160630 32.008203 13.795417
14915   1 2 0.0 20.049532 29.262952 11.270766
14916   1 2 0.0 20.225068 26.191182 9.204395
14917   1 1 0.0 24.398594 37.713859 22.451751
14918   1 1 0.0 20.502058 34.306175 17.828423
14919   1 1 0.0 25.574806 37.146011 18.940628
14920   1 1 0.0 22.735547 36.947206 17.881925
14921   1 2 0.0 23.588558 36.121335 21.794354
14922   1 2 0.0 22.653817 36.571503 15.991098
14923   1 2 0.0 23.411014 32.271191 16.468948
14924   1 2 0.0 24.170437 36.595680 18.094354
14925   1 2 0.0 22.660206 38.811731 18.998877
14926   1 2 0.0 25.230458 37.820524 20.893997
14927   1 2 0.0 21.600808 35.810305 18.369346
14928   1 2 0.0 21.110180 32.772894 16.302975
14929   1 1 0.0 27.669033 43.125278 29.550331
14930   1 1 0.0 23.129634 40.637476 24.927003
14931   1 1 0.0 28.695217 42.317273 26.039208
14932   1 1 0.0 25.879838 42.735069 24.980505
14933   1 2 0.0 26.534807 41.744763 28.892934
14934   1 2 0.0 25.719055 42.385810 23.089678
14935   1 2 0.0 25.531638 38.023368 23.567528
14936   1 2 0.0 27.205244 42.082551 25.192934
14937   1 2 0.0 26.208117 44.572013 26.097457
14938   1 2 0.0 28.504336 43.050150 27.992577
14939   1 2 0.0 24.526738 41.869450 25.467926
14940   1 2 0.0 23.393006 39.009164 23.401555
14941   1 1 0.0 32.028902 47.704664 36.648911
14942   1 1 0.0 27.060004 46.253677 32.025583
14943   1 1 0.0 32.856825 46.694482 33.137788
14944   1 1 0.0 30.197656 47.709239 32.079085
14945   1 2 0.0 30.623797 46.601046 35.991514
14946   1 2 0.0 29.965378 47.402841 30.188258
14947   1 2 0.0 28.842156 43.183315 30.666108
14948   1 2 0.0 31.351279 46.786400 32.291514
14949   1 2 0.0 30.914125 49.432261 33.196037
14950   1 2 0.0 32.828381 47.451274 35.091157
14951   1 2 0.0 28.689794 47.155589 32.566506
14952   1 2 0.0 26.966247 44.606870 30.500135
14953   1 1 0.0 37.273273 51.236773 43.747491
14954   1 1 0.0 32.108430 50.890802 39.124163
14955   1 1 0.0 37.864021 50.071894 40.236368
14956   1 1 0.0 35.486050 51.635918 39.177665
14957   1 2 0.0 35.663335 50.461924 43.090094
14958   1 2 0.0 35.193196 51.386782 37.286838
14959   1 2 0.0 33.186962 47.508501 37.764688
14960   1 2 0.0 36.413669 50.486133 39.390094
14961   1 2 0.0 36.557034 53.164029 40.294617
14962   1 2 0.0 37.999353 50.817031 42.189737
14963   1 2 0.0 33.894301 51.420259 39.665086
14964   1 2 0.0 31.661950 49.302904 37.598715
14965   1 1 0.0 44.385618 48.280241 47.916880
14966   1 1 0.0 38.864794 49.378636 44.367368
14967   1 1 0.0 44.860378 47.042662 44.526685
14968   1 1 0.0 42.037439 49.272111 44.436356
14969   1 2 0.0 43.158839 47.903279 46.984306
14970   1 2 0.0 41.694233 49.102576 42.714664
14971   1 2 0.0 41.193983 45.823349 41.340914
14972   1 2 0.0 43.261481 47.869631 44.087611
14973   1 2 0.0 42.797577 50.564383 45.918809
14974   1 2 0.0 44.965684 47.715171 46.468709
14975   1 2 0.0 40.574245 49.450075 44.874828
14976   1 2 0.0 38.732778 47.952702 42.446338
14977   1 1 0.0 49.463640 49.135657 55.015460
14978   1 1 0.0 44.309293 51.398107 51.465948
14979   1 1 0.0 49.660515 47.824841 51.625265
14980   1 1 0.0 47.384419 50.610305 51.534936
14981   1 2 0.0 48.184448 49.031954 54.082886
14982   1 2 0.0 47.012739 50.518723 49.813244
14983   1 2 0.0 45.817494 47.424378 48.439494
14984   1 2 0.0 48.277425 48.976975 51.186191
14985   1 2 0.0 48.405208 51.708379 53.017389
14986   1 2 0.0 49.908288 48.458848 53.567289
14987   1 2 0.0 45.993967 51.099440 51.973408
14988   1 2 0.0 43.873057 50.034137 49.544918
14989   1 1 0.0 54.606684 48.876535 62.114040
14990   1 1 0.0 50.061084 52.196699 58.564528
14991   1 1 0.0 54.516420 47.554094 58.723845
14992   1 1 0.0 52.894149 50.764648 58.633516
14993   1 2 0.0 53.335204 49.050965 61.181466
14994   1 2 0.0 52.511467 50.755325 56.911824
14995   1 2 0.0 50.677407 47.991305 55.538074
14996   1 2 0.0 53.414147 48.977239 58.284771
14997   1 2 0.0 54.127609 51.616912 60.115969
14998   1 2 0.0 54.895013 48.119800 60.665869
14999   1 2 0.0 51.641795 51.541963 59.071988
15000   1 2 0.0 49.341132 50.958803 56.643498
15001   1 1 0.0 59.573012 47.515055 69.212620
15002   1 1 0.0 55.849814 51.736875 65.663108
15003   1 1 0.0 59.199852 46.243147 65.822425
15004   1 1 0.0 58.307657 49.727887 65.732096
15005   1 2 0.0 58.369008 47.959420 68.280046
15006   1 2 0.0 57.931959 49.801259 64.010404
15007   1 2 0.0 55.545290 47.497481 62.636654
15008   1 2 0.0 58.430206 47.870412 65.383351
15009   1 2 0.0 59.695812 50.294281 67.214549
15010   1 2 0.0 59.691471 46.713963 67.764449
15011   1 2 0.0 57.252265 50.756846 66.170568
15012   1 2 0.0 54.879986 50.683238 63.742078
15013   1 1 0.0 64.129194 45.115209 76.311200
15014   1 1 0.0 61.403398 50.040248 72.761688
15015   1 1 0.0 63.490677 43.953618 72.921005
15016   1 1 0.0 63.370494 47.548751 72.830676
15017   1 2 0.0 63.049256 45.808623 75.378626
15018   1 2 0.0 63.019439 47.701371 71.108984
15019   1 2 0.0 60.192341 45.966119 69.735234
15020   1 2 0.0 63.089833 45.708518 72.481931
15021   1 2 0.0 64.848097 47.802653 74.313129
15022   1 2 0.0 64.072214 44.307413 74.863029
15023   1 2 0.0 62.561670 48.780990 73.269148
15024   1 2 0.0 60.229279 49.220394 70.840658
15025   1 1 0.0 68.061074 41.789798 83.409780
15026   1 1 0.0 66.460802 47.186566 79.860268
15027   1 1 0.0 67.187213 40.793122 80.019585
15028   1 1 0.0 67.844691 44.329666 79.929256
15029   1 2 0.0 67.155964 42.699668 82.477206
15030   1 2 0.0 67.534780 44.554360 78.207564
15031   1 2 0.0 64.400135 43.469195 76.833814
15032   1 2 0.0 67.174012 42.593170 79.580511
15033   1 2 0.0 69.342291 44.259143 81.411709
15034   1 2 0.0 67.831335 41.013267 81.961609
15035   1 2 0.0 67.320453 45.707266 80.367728
15036   1 2 0.0 65.137578 46.639030 77.939238
15037   1 1 0.0 71.183846 37.695126 90.508360
15038   1 1 0.0 70.784313 43.309958 86.958848
15039   1 1 0.0 70.115714 36.910210 87.118165
15040   1 1 0.0 71.519950 40.221938 87.027836
15041   1 2 0.0 70.496105 38.778684 89.575786
15042   1 2 0.0 71.265748 40.508145 85.306144
15043   1 2 0.0 67.970893 40.124074 83.932394
15044   1 2 0.0 70.490776 38.670800 86.679091
15045   1 2 0.0 72.967154 39.830304 88.510289
15046   1 2 0.0 70.792144 36.986358 89.060189
15047   1 2 0.0 71.304937 41.680149 87.466308
15048   1 2 0.0 69.374180 43.060476 85.037818
15049   1 1 0.0 73.350728 33.023652 97.606940
15050   1 1 0.0 74.170715 38.592637 94.057428
15051   1 1 0.0 72.138531 32.487391 94.216745
15052   1 1 0.0 74.223521 35.418642 94.126416
15053   1 2 0.0 72.912683 34.229970 96.674366
15054   1 2 0.0 74.036979 35.752909 92.404724
15055   1 2 0.0 70.736781 36.087984 91.030974
15056   1 2 0.0 72.884228 34.125769 93.777671
15057   1 2 0.0 75.552308 34.724306 95.608869
15058   1 2 0.0 72.815476 32.415962 96.158769
15059   1 2 0.0 74.327841 36.888924 94.564888
15060   1 2 0.0 72.739952 38.652935 92.136398
15061   1 1 0.0 74.459872 27.994950 104.705520
15062   1 1 0.0 76.460837 33.256329 101.156008
15063   1 1 0.0 73.160586 27.732549 101.315325
15064   1 1 0.0 75.828331 30.145547 101.224996
15065   1 2 0.0 74.292112 29.267327 103.772946
15066   1 2 0.0 75.718215 30.512163 99.503304
15067   1 2 0.0 72.567792 31.550633 98.129554
15068   1 2 0.0 74.241868 29.171708 100.876251
15069   1 2 0.0 76.976243 29.181143 102.707449
15070   1 2 0.0 73.806228 27.516901 103.257349
15071   1 2 0.0 76.247079 31.558791 101.663468
15072   1 2 0.0 75.076695 33.623574 99.234978
15073   1 1 0.0 74.459145 22.845382 111.804100
15074   1 1 0.0 77.547036 27.551856 108.254588
15075   1 1 0.0 73.133840 22.869175 108.413905
15076   1 1 0.0 76.258948 24.650502 108.323576
15077   1 2 0.0 74.569555 24.124013 110.871526
15078   1 2 0.0 76.230434 25.032234 106.601884
15079   1 2 0.0 73.377866 26.725291 105.228134
15080   1 2 0.0 74.499883 24.041470 107.974831
15081   1 2 0.0 77.172030 23.461361 109.806029
15082   1 2 0.0 73.717831 22.519445 110.355929
15083   1 2 0.0 76.972443 25.940283 108.762048
15084   1 2 0.0 76.274574 28.208786 106.333558
15085   1 1 0.0 73.348581 17.816994 118.902680
15086   1 1 0.0 77.378259 21.747345 115.353168
15087   1 1 0.0 72.059550 18.125862 115.512485
15088   1 1 0.0 75.495132 19.191790 115.422156
15089   1 2 0.0 73.731971 19.041778 117.970106
15090   1 2 0.0 75.549560 19.570697 113.700464
15091   1 2 0.0 73.128926 21.838760 112.326714
15092   1 2 0.0 73.646147 18.976191 115.073411
15093   1 2 0.0 76.130467 17.833805 116.904609
15094   1 2 0.0 72.554442 17.658487 117.454509
15095   1 2 0.0 76.469837 20.297484 115.860628
15096   1 2 0.0 76.277285 22.663082 113.432138
15097   1 1 0.0 71.180379 13.146132 126.001260
15098   1 1 0.0 75.962439 16.115623 122.451748
15099   1 1 0.0 69.988211 13.725558 122.611065
15100   1 1 0.0 73.572784 14.025986 122.520736
15101   1 2 0.0 71.818730 14.259503 125.068686
15102   1 2 0.0 73.707597 14.384257 120.799044
15103   1 2 0.0 71.832672 17.120722 119.425294
15104   1 2 0.0 71.720786 14.213954 122.171991
15105   1 2 0.0 73.900511 12.562985 124.003189
15106   1 2 0.0 70.370741 13.162506 124.553089
15107   1 2 0.0 74.762886 14.895623 122.959208
15108   1 2 0.0 75.084702 17.247125 120.530718
15109   1 1 0.0 68.056451 9.052341 133.099840
15110   1 1 0.0 73.366122 10.921398 129.550328
15111   1 1 0.0 67.017182 9.875091 129.709645
15112   1 1 0.0 70.582262 9.395898 129.619316
15113   1 2 0.0 68.919758 10.001967 132.167266
15114   1 2 0.0 70.791122 9.716693 127.897624
15115   1 2 0.0 69.550034 12.792938 126.523874
15116   1 2 0.0 68.814300 9.978598 129.270571
15117   1 2 0.0 70.586974 7.896646 131.101769
15118   1 2 0.0 67.269370 9.242827 131.651669
15119   1 2 0.0 71.931822 9.988601 130.057788
15120   1 2 0.0 72.752879 12.215481 127.629298
15121   1 1 0.0 64.123631 5.728041 140.198420
15122   1 1 0.0 69.711343 6.408812 136.648908
15123   1 1 0.0 63.286108 6.755442 136.808225
15124   1 1 0.0 66.664126 5.519151 136.717896
15125   1 2 0.0 65.171316 6.469286 139.265846
15126   1 2 0.0 66.937217 5.787393 134.996204
15127   1 2 0.0 66.388300 9.058826 133.622454
15128   1 2 0.0 65.063300 6.469195 136.369151
15129   1 2 0.0 66.345604 4.054119 138.200349
15130   1 2 0.0 63.396102 6.083684 138.750249
15131   1 2 0.0 68.109711 5.807063 137.156368
15132   1 2 0.0 69.391418 7.804650 134.727878
15133   1 1 0.0 59.566773 3.329483 147.297000
15134   1 1 0.0 65.169887 2.789969 143.747488
15135   1 1 0.0 58.970361 4.513244 143.906805
15136   1 1 0.0 62.002541 2.577965 143.816476
15137   1 2 0.0 60.749591 3.827506 146.364426
15138   1 2 0.0 62.327027 2.781046 142.094784
15139   1 2 0.0 62.496081 6.093900 140.721034
15140   1 2 0.0 60.644093 3.850697 143.467731
15141   1 2 0.0 61.375755 1.216012 145.298929
15142   1 2 0.0 58.932991 3.833568 145.848829
15143   1 2 0.0 63.476205 2.547552 144.254948
15144   1 2 0.0 65.158317 4.221956 141.826458
15145   1 1 0.0 54.600060 1.969405 154.395580
15146   1 1 0.0 59.955216 0.234967 150.846068
15147   1 1 0.0 54.272794 3.253887 151.005385
15148   1 1 0.0 56.816615 0.710583 150.915056
15149   1 2 0.0 55.862416 2.200799 153.463006
15150   1 2 0.0 57.177243 0.838957 149.193364
15151   1 2 0.0 58.056323 4.037519 147.819614
15152   1 2 0.0 55.764396 2.246182 150.566311
15153   1 2 0.0 55.911026 -0.484275 152.397509
15154   1 2 0.0 54.089815 2.598238 152.947409
15155   1 2 0.0 58.249091 0.363276 151.353528
15156   1 2 0.0 60.252545 1.635793 148.925038
15157   1 1 0.0 49.456943 1.711736 161.494160
15158   1 1 0.0 54.312433 -1.136104 157.944648
15159   1 1 0.0 49.414205 3.036565 158.103965
15160   1 1 0.0 51.350099 0.004778 158.013636
15161   1 2 0.0 50.739503 1.665624 160.561586
15162   1 2 0.0 51.729920 0.052410 156.291944
15163   1 2 0.0 53.277707 2.986339 154.918194
15164   1 2 0.0 50.653568 1.731066 157.664891
15165   1 2 0.0 50.208273 -0.966824 159.496089
15166   1 2 0.0 49.094218 2.435760 160.045989
15167   1 2 0.0 52.674057 -0.643100 158.452108
15168   1 2 0.0 54.904685 0.167719 156.023618
15169   1 1 0.0 44.379163 2.568586 168.592740
15170   1 1 0.0 48.506764 -1.258799 165.043228
15171   1 1 0.0 44.622961 3.871491 165.202545
15172   1 1 0.0 45.859937 0.493723 165.112216
15173   1 2 0.0 45.621642 2.247136 167.660166
15174   1 2 0.0 46.241098 0.458376 163.390524
15175   1 2 0.0 48.384841 2.989769 162.016774
15176   1 2 0.0 45.551831 2.329561 164.763471
15177   1 2 0.0 44.535542 -0.208953 166.594669
15178   1 2 0.0 44.181007 3.353771 167.144569
15179   1 2 0.0 47.013147 -0.424273 165.550688
15180   1 2 0.0 49.366103 -0.113262 163.122198
15181   1 1 0.0 39.605389 4.499681 175.691320
15182   1 1 0.0 42.811094 -0.127351 172.141808
15183   1 1 0.0 40.124264 5.719421 172.301125
15184   1 1 0.0 40.604181 2.154439 172.210796
15185   1 2 0.0 40.749388 3.918001 174.758746
15186   1 2 0.0 40.968765 2.037773 170.489104
15187   1 2 0.0 43.607703 4.047647 169.115354
15188   1 2 0.0 40.698983 4.013536 171.862051
15189   1 2 0.0 39.159468 1.753715 173.693249
15190   1 2 0.0 39.581116 5.309120 174.243149
15191   1 2 0.0 41.532439 1.009473 172.649268
15192   1 2 0.0 43.897127 0.806056 170.220778
15193   1 1 0.0 35.360002 7.414255 182.789900
15194   1 1 0.0 37.493133 2.205059 179.240388
15195   1 1 0.0 36.129567 8.493499 179.399705
15196   1 1 0.0 35.829866 4.908865 179.309376
15197   1 2 0.0 36.351750 6.599686 181.857326
15198   1 2 0.0 36.160738 4.716365 177.587684
15199   1 2 0.0 39.170832 6.110250 176.213934
15200   1 2 0.0 36.323119 6.703839 178.960631
15201   1 2 0.0 34.332740 4.828929 180.791829
15202   1 2 0.0 35.510753 8.209902 181.341729
15203   1 2 0.0 36.489541 3.590746 179.747848
15204   1 2 0.0 38.754815 2.882464 177.319358
15205   1 1 0.0 31.842548 11.175313 189.888480
15206   1 1 0.0 32.802842 5.628800 186.338968
15207   1 1 0.0 32.826629 12.063335 186.498285
15208   1 1 0.0 31.761399 8.627537 186.407956
15209   1 2 0.0 32.635430 10.166143 188.955906
15210   1 2 0.0 32.043006 8.368250 184.686264
15211   1 2 0.0 35.282774 9.080630 183.312514
15212   1 2 0.0 32.629919 10.274019 186.059211
15213   1 2 0.0 30.282229 8.872146 187.890409
15214   1 2 0.0 32.161237 11.919772 188.440309
15215   1 2 0.0 32.121484 7.198220 186.846428
15216   1 2 0.0 34.180869 6.018363 184.417938
15217   1 1 0.0 29.218357 15.606077 196.987060
15218   1 1 0.0 28.960677 9.982948 193.437548
15219   1 1 0.0 30.370700 16.261136 193.596865
15220   1 1 0.0 28.590008 13.135667 193.506536
15221   1 2 0.0 29.775104 14.449738 196.054486
15222   1 2 0.0 28.809115 12.821780 191.784844
15223   1 2 0.0 32.126278 12.819171 190.411094
15224   1 2 0.0 29.792973 14.556267 193.157791
15225   1 2 0.0 27.198320 13.693323 194.988989
15226   1 2 0.0 29.690005 16.264354 195.538889
15227   1 2 0.0 28.633579 11.662333 193.945008
15228   1 2 0.0 30.390278 10.066358 191.516518
15229   1 1 0.0 27.610772 20.498286 204.085640
15230   1 1 0.0 26.147230 15.062846 200.536128
15231   1 1 0.0 28.877215 20.889593 200.695445
15232   1 1 0.0 26.464758 18.221359 200.605116
15233   1 2 0.0 27.905217 19.249131 203.153066
15234   1 2 0.0 26.611066 17.867626 198.883424
15235   1 2 0.0 29.849709 17.150151 197.509674
15236   1 2 0.0 27.945625 19.349305 200.256371
15237   1 2 0.0 25.225965 19.065851 202.087569
15238   1 2 0.0 28.213210 21.039442 202.637469
15239   1 2 0.0 26.189767 16.773260 201.043588
15240   1 2 0.0 27.561211 14.836182 198.615098
15241   1 1 0.0 27.095355 25.621995 5.862344
15242   1 1 0.0 24.494742 20.629723 2.312832
15243   1 1 0.0 28.416371 25.731157 2.472149
15244   1 1 0.0 25.485542 23.645572 2.381820
15245   1 2 0.0 27.113658 24.338737 4.929770
15246   1 2 0.0 25.552174 23.268620 0.660128
15247   1 2 0.0 28.560072 21.870001 204.608254
15248   1 2 0.0 27.174706 24.427848 2.033075
15249   1 2 0.0 24.457871 24.737206 3.864273
15250   1 2 0.0 27.800267 26.020593 4.414173
15251   1 2 0.0 24.904915 22.290772 2.820292
15252   1 2 0.0 25.826641 20.103640 0.391802
15253   1 1 0.0 27.696333 30.736374 12.960924
15254   1 1 0.0 24.080884 26.421921 9.411412
15255   1 1 0.0 29.009829 30.558260 9.570729
15256   1 1 0.0 25.698386 29.153352 9.480400
15257   1 2 0.0 27.437633 29.479330 12.028350
15258   1 2 0.0 25.682210 28.770898 7.758708
15259   1 2 0.0 28.317982 26.756876 6.384958
15260   1 2 0.0 27.516451 29.553189 9.131655
15261   1 2 0.0 24.930139 30.440820 10.962853
15262   1 2 0.0 28.470585 30.973679 11.512753
15263   1 2 0.0 24.839413 27.955532 9.918872
15264   1 2 0.0 25.268098 25.621146 7.490382
15265   1 1 0.0 29.385456 35.601033 20.059504
15266   1 1 0.0 24.925109 32.167191 16.509992
15267   1 1 0.0 30.629696 35.144015 16.669309
15268   1 1 0.0 27.093286 34.485819 16.578980
15269   1 2 0.0 28.861913 34.429287 19.126930
15270   1 2 0.0 26.995061 34.115840 14.857288
15271   1 2 0.0 29.134820 31.581079 13.483538
15272   1 2 0.0 28.954798 34.484423 16.230235
15273   1 2 0.0 26.620574 35.908605 18.061433
15274   1 2 0.0 30.192658 35.665891 18.611333
15275   1 2 0.0 25.996340 33.501278 17.017452
15276   1 2 0.0 25.911836 31.129362 14.588962
15277   1 1 0.0 32.083333 39.987319 27.158084
15278   1 1 0.0 26.987735 37.595488 23.608572
15279   1 1 0.0 33.199833 39.272879 23.767889
15280   1 1 0.0 29.604676 39.392332 23.677560
15281   1 2 0.0 31.319554 38.955947 26.225510
15282   1 2 0.0 29.429021 39.052217 21.955868
15283   1 2 0.0 30.972191 36.115858 20.582118
15284   1 2 0.0 31.422139 38.989768 23.328815
15285   1 2 0.0 29.449718 40.883561 25.160013
15286   1 2 0.0 32.885543 39.876682 25.709913
15287   1 2 0.0 28.321319 38.667347 24.116032
15288   1 2 0.0 27.727596 36.369387 21.687542
15289   1 1 0.0 35.663154 43.689065 34.256664
15290   1 1 0.0 30.171814 42.451668 30.707152
15291   1 1 0.0 36.599436 42.750783 30.866469
15292   1 1 0.0 33.114516 43.642270 30.776140
15293   1 2 0.0 34.695041 42.846544 33.324090
15294   1 2 0.0 32.869686 43.348007 29.054448
15295   1 2 0.0 33.743734 40.148066 27.680698
15296   1 2 0.0 34.802504 42.857461 30.427395
15297   1 2 0.0 33.284594 45.131851 32.258593
15298   1 2 0.0 36.422666 43.408133 32.808493
15299   1 2 0.0 31.705068 43.210918 31.214612
15300   1 2 0.0 30.630033 41.094924 28.786122
15301   1 1 0.0 39.956659 46.532279 41.355244
15302   1 1 0.0 34.327685 46.507476 37.805732
15303   1 1 0.0 40.668715 45.414256 37.965049
15304   1 1 0.0 37.457832 47.035875 37.874720
15305   1 2 0.0 38.829714 45.918209 40.422670
15306   1 2 0.0 37.155335 46.801294 36.153028
15307   1 2 0.0 37.319178 43.488178 34.779278
15308   1 2 0.0 38.937005 45.905709 37.525975
15309   1 2 0.0 37.944953 48.453793 39.357173
15310   1 2 0.0 40.637774 46.094256 39.907073
15311   1 2 0.0 35.988541 46.918430 38.313192
15312   1 2 0.0 34.482724 45.083860 35.884702
15313   1 1 0.0 42.457437 62.746781 52.173624
15314   1 1 0.0 38.682926 62.992707 44.988974
15315   1 1 0.0 41.783584 61.801025 49.160775
15316   1 1 0.0 41.678206 63.349897 45.910546
15317   1 2 0.0 40.147401 62.235316 51.705916
15318   1 2 0.0 41.112597 63.260278 43.917537
15319   1 2 0.0 35.072354 59.760203 47.063530
15320   1 2 0.0 40.992127 62.274492 47.490904
15321   1 2 0.0 44.471616 64.441925 46.043536
15322   1 2 0.0 42.699645 62.389193 50.852871
15323   1 2 0.0 40.370181 63.269429 45.988593
15324   1 2 0.0 36.337257 61.642449 44.581952
15325   1 1 0.0 50.698657 63.677782 59.272204
15326   1 1 0.0 47.065855 64.731425 52.087554
15327   1 1 0.0 49.836808 62.899483 56.259355
15328   1 1 0.0 50.067725 64.434666 53.009126
15329   1 2 0.0 48.332677 63.676205 58.804496
15330   1 2 0.0 49.496093 64.469056 51.016117
15331   1 2 0.0 42.843455 62.353053 54.162110
15332   1 2 0.0 49.165995 63.532401 54.589484
15333   1 2 0.0 53.030844 64.898985 53.142116
15334   1 2 0.0 50.858104 63.276396 57.951451
15335   1 2 0.0 48.773098 64.638000 53.087173
15336   1 2 0.0 44.484300 63.918447 51.680532
15337   1 1 0.0 58.946850 62.810724 66.370784
15338   1 1 0.0 55.626509 64.622561 59.186134
15339   1 1 0.0 57.937513 62.236466 63.357935
15340   1 1 0.0 58.493872 63.685802 60.107706
15341   1 2 0.0 56.636134 63.319109 65.903076
15342   1 2 0.0 57.943086 63.842583 58.114697
15343   1 2 0.0 50.990746 63.210111 61.260690
15344   1 2 0.0 57.418874 62.999085 61.688064
15345   1 2 0.0 61.487426 63.500585 60.240696
15346   1 2 0.0 59.016041 62.384407 65.050031
15347   1 2 0.0 57.273494 64.163379 60.185753
15348   1 2 0.0 52.930408 64.385075 58.779112
15349   1 1 0.0 66.814327 60.186362 73.469364
15350   1 1 0.0 63.962513 62.671230 66.284714
15351   1 1 0.0 65.704945 59.843135 70.456515
15352   1 1 0.0 66.560595 61.138501 67.206286
15353   1 2 0.0 64.667485 61.180813 73.001656
15354   1 2 0.0 66.056543 61.410306 65.213277
15355   1 2 0.0 59.131280 62.291092 68.359270
15356   1 2 0.0 65.362857 60.699611 68.786644
15357   1 2 0.0 69.443877 60.312456 67.339276
15358   1 2 0.0 66.790011 59.755152 72.148611
15359   1 2 0.0 65.471826 61.867876 67.284333
15360   1 2 0.0 61.278590 63.020399 65.877692
15361   1 1 0.0 73.931295 55.928048 80.567944
15362   1 1 0.0 71.682051 58.969152 73.383294
15363   1 1 0.0 72.774011 55.831986 77.555095
15364   1 1 0.0 73.888735 56.912496 74.304866
15365   1 2 0.0 72.049235 57.361823 80.100236
15366   1 2 0.0 73.455109 57.286547 72.311857
15367   1 2 0.0 66.882429 59.639193 75.457850
15368   1 2 0.0 72.624554 56.742061 75.885224
15369   1 2 0.0 76.526223 55.484448 74.437856
15370   1 2 0.0 73.814614 55.512212 79.247191
15371   1 2 0.0 72.982751 57.859384 74.382913
15372   1 2 0.0 69.136458 59.888564 72.976272
15373   1 1 0.0 79.963236 50.235935 87.666524
15374   1 1 0.0 78.422282 53.690333 80.481874
15375   1 1 0.0 78.812447 50.391552 84.653675
15376   1 1 0.0 80.133848 51.206419 81.403446
15377   1 2 0.0 78.434420 52.041643 87.198816
15378   1 2 0.0 79.791030 51.665136 79.410437
15379   1 2 0.0 73.879869 55.379061 82.556430
15380   1 2 0.0 78.862645 51.312451 82.983804
15381   1 2 0.0 82.401574 49.243491 81.536436
15382   1 2 0.0 79.759675 49.855019 86.345771
15383   1 2 0.0 79.453234 52.326315 81.481493
15384   1 2 0.0 76.134670 55.136774 80.074852
15385   1 1 0.0 84.626633 43.377567 94.765104
15386   1 1 0.0 83.866399 47.082895 87.580454
15387   1 1 0.0 83.536428 43.777550 91.752255
15388   1 1 0.0 85.002398 44.288473 88.502026
15389   1 2 0.0 83.522919 45.470335 94.297396
15390   1 2 0.0 84.766501 44.810295 86.509017
15391   1 2 0.0 79.794699 49.710932 89.655010
15392   1 2 0.0 83.783922 44.665987 90.082384
15393   1 2 0.0 86.793771 41.882927 88.635016
15394   1 2 0.0 84.345760 43.049476 93.444351
15395   1 2 0.0 84.579143 45.528739 88.580073
15396   1 2 0.0 81.944291 48.988377 87.173432
15397   1 1 0.0 87.702292 35.675308 101.863684
15398   1 1 0.0 87.758511 39.457404 94.679034
15399   1 1 0.0 86.723914 36.300855 98.850835
15400   1 1 0.0 88.265548 36.483820 95.600606
15401   1 2 0.0 87.075558 37.956769 101.395976
15402   1 2 0.0 88.147660 37.044220 93.607597
15403   1 2 0.0 84.348906 42.901227 96.753590
15404   1 2 0.0 87.157071 37.115073 97.180964
15405   1 2 0.0 89.496369 33.748725 95.733596
15406   1 2 0.0 87.357308 35.415462 100.542931
15407   1 2 0.0 88.119546 37.786159 95.678653
15408   1 2 0.0 86.292251 41.732365 94.272012
15409   1 1 0.0 89.045649 27.491185 108.962264
15410   1 1 0.0 89.915678 31.172280 101.777614
15411   1 1 0.0 88.225085 28.312895 105.949415
15412   1 1 0.0 89.769921 28.159301 102.699186
15413   1 2 0.0 88.925353 29.854105 108.494556
15414   1 2 0.0 89.775583 28.731938 100.706177
15415   1 2 0.0 87.328430 35.270019 103.852170
15416   1 2 0.0 88.823545 29.014622 104.279544
15417   1 2 0.0 90.382338 25.223213 102.832176
15418   1 2 0.0 88.652770 27.311798 107.641511
15419   1 2 0.0 89.908036 29.462500 102.777233
15420   1 2 0.0 88.974186 33.709790 101.370592
15421   1 1 0.0 88.593562 19.209875 116.060844
15422   1 1 0.0 90.236508 22.616948 108.876194
15423   1 1 0.0 87.969380 20.189125 113.047995
15424   1 1 0.0 89.444808 19.706192 109.797766
15425   1 2 0.0 88.985359 21.543190 115.593136
15426   1 2 0.0 89.573754 20.264151 107.804757
15427   1 2 0.0 88.593224 27.175997 110.950750
15428   1 2 0.0 88.705015 20.745378 111.378124
15429   1 2 0.0 89.410035 16.707116 109.930756
15430   1 2 0.0 88.171254 19.119379 114.740091
15431   1 2 0.0 89.860547 20.948997 109.875813
15432   1 2 0.0 89.864036 25.297736 108.469172
15433   1 1 0.0 86.367281 11.220623 123.159424
15434   1 1 0.0 88.705920 14.193531 115.974774
15435   1 1 0.0 85.968820 12.311385 120.146575
15436   1 1 0.0 87.305489 11.521812 116.896346
15437   1 2 0.0 87.252755 13.414661 122.691716
15438   1 2 0.0 87.551659 12.038868 114.903337
15439   1 2 0.0 88.083839 18.999603 118.049330
15440   1 2 0.0 86.807052 12.696019 118.476704
15441   1 2 0.0 86.625162 8.600713 117.029336
15442   1 2 0.0 85.935394 11.223271 121.838671
15443   1 2 0.0 87.979312 12.645808 116.974393
15444   1 2 0.0 88.919976 16.891594 115.567752
15445   1 1 0.0 82.471448 3.898946 130.258004
15446   1 1 0.0 85.395857 6.297954 123.073354
15447   1 1 0.0 82.317436 5.049952 127.245155
15448   1 1 0.0 83.452519 3.990851 123.994926
15449   1 2 0.0 83.808978 5.850580 129.790296
15450   1 2 0.0 83.804341 4.442699 122.001917
15451   1 2 0.0 85.824219 11.125151 125.147910
15452   1 2 0.0 83.218865 5.244887 125.575284
15453   1 2 0.0 82.158614 1.285028 124.127916
15454   1 2 0.0 82.050281 3.994614 128.937251
15455   1 2 0.0 84.352755 4.943206 124.072973
15456   1 2 0.0 86.186379 8.886475 122.666332
15457   1 1 0.0 77.089176 -2.411016 137.356584
15458   1 1 0.0 80.461901 -0.698668 130.171934
15459   1 1 0.0 77.186853 -1.253867 134.343735
15460   1 1 0.0 78.066999 -2.532716 131.093506
15461   1 2 0.0 78.815896 -0.793518 136.888876
15462   1 2 0.0 78.507936 -2.167312 129.100497
15463   1 2 0.0 81.920571 3.922760 132.246490
15464   1 2 0.0 78.109110 -1.257793 132.673864
15465   1 2 0.0 76.220333 -4.896080 131.226496
15466   1 2 0.0 76.698526 -2.226825 136.035831
15467   1 2 0.0 79.151332 -1.796764 131.171553
15468   1 2 0.0 81.791732 1.658642 129.764912
15469   1 1 0.0 70.473448 -7.412678 144.455164
15470   1 1 0.0 74.135961 -6.467475 137.270514
15471   1 1 0.0 70.818223 -6.303776 141.442315
15472   1 1 0.0 71.402062 -7.742262 138.192086
15473   1 2 0.0 72.508198 -6.205343 143.987456
15474   1 2 0.0 71.911390 -7.480478 136.199077
15475   1 2 0.0 76.556378 -2.269035 139.345070
15476   1 2 0.0 71.717960 -6.506378 139.772444
15477   1 2 0.0 69.089434 -9.652084 138.325076
15478   1 2 0.0 70.131677 -7.148621 143.134411
15479   1 2 0.0 72.619527 -7.257306 138.270133
15480   1 2 0.0 75.942596 -4.452175 136.863492
15481   1 1 0.0 62.935223 -10.870948 151.553744
15482   1 1 0.0 66.715375 -10.737317 144.369094
15483   1 1 0.0 63.510889 -9.862413 148.540895
15484   1 1 0.0 63.770979 -11.392924 145.290666
15485   1 2 0.0 65.182362 -10.130523 151.086036
15486   1 2 0.0 64.324758 -11.247065 143.297657
15487   1 2 0.0 69.983773 -7.159203 146.443650
15488   1 2 0.0 64.345816 -10.254168 146.871024
15489   1 2 0.0 61.101090 -12.759436 145.423656
15490   1 2 0.0 62.658394 -10.539437 150.232991
15491   1 2 0.0 65.064352 -11.181758 145.368713
15492   1 2 0.0 68.913896 -9.158751 143.962072
15493   1 1 0.0 54.828817 -12.623276 158.652324
15494   1 1 0.0 58.548931 -13.307498 151.467674
15495   1 1 0.0 55.608317 -11.762514 155.639475
15496   1 1 0.0 55.532433 -13.313111 152.389246
15497   1 2 0.0 57.182724 -12.384565 158.184616
15498   1 2 0.0 56.104634 -13.290032 150.396237
15499   1 2 0.0 62.511685 -10.517893 153.542230
15500   1 2 0.0 56.339189 -12.325009 153.969604
15501   1 2 0.0 52.630774 -14.072084 152.522236
15502   1 2 0.0 54.629942 -12.239893 157.331571
15503   1 2 0.0 56.840921 -13.385660 152.467293
15504   1 2 0.0 61.036002 -12.239865 151.060652
15505   1 1 0.0 46.535254 -12.587300 165.750904
15506   1 1 0.0 50.020474 -14.057215 158.566254
15507   1 1 0.0 47.481950 -11.914767 162.738055
15508   1 1 0.0 47.073659 -13.412568 159.487826
15509   1 2 0.0 48.885289 -12.861521 165.283196
15510   1 2 0.0 47.637386 -13.513355 157.494817
15511   1 2 0.0 54.491324 -12.187236 160.640810
15512   1 2 0.0 48.074415 -12.621563 161.068184
15513   1 2 0.0 44.076617 -13.528328 159.620816
15514   1 2 0.0 46.423681 -12.170064 164.430151
15515   1 2 0.0 48.335760 -13.765422 159.565873
15516   1 2 0.0 52.679196 -13.550695 158.159232
15517   1 1 0.0 38.444356 -10.764709 172.849484
15518   1 1 0.0 41.530867 -12.951226 165.664834
15519   1 1 0.0 39.513750 -10.312017 169.836635
15520   1 1 0.0 38.792243 -11.686621 166.586406
15521   1 2 0.0 40.680061 -11.538974 172.381776
15522   1 2 0.0 39.320999 -11.906536 164.593397
15523   1 2 0.0 46.299670 -12.088769 167.739390
15524   1 2 0.0 39.939959 -11.129892 168.166764
15525   1 2 0.0 35.840686 -11.153726 166.719396
15526   1 2 0.0 38.425329 -10.333232 171.528731
15527   1 2 0.0 39.948634 -12.303196 166.664453
15528   1 2 0.0 44.236272 -13.029628 165.257812
15529   1 1 0.0 30.936416 -7.241170 179.948064
15530   1 1 0.0 33.479144 -10.041518 172.763414
15531   1 1 0.0 32.078244 -7.029597 176.935215
15532   1 1 0.0 31.077433 -8.216395 173.684986
15533   1 2 0.0 32.952706 -8.479087 179.480356
15534   1 2 0.0 31.546367 -8.545101 171.691977
15535   1 2 0.0 38.321754 -10.227121 174.837970
15536   1 2 0.0 32.318166 -7.920110 175.265344
15537   1 2 0.0 28.310094 -7.059893 173.817976
15538   1 2 0.0 31.010831 -6.815734 178.627311
15539   1 2 0.0 32.073761 -9.067708 173.763033
15540   1 2 0.0 36.104070 -10.701157 172.356392
15541   1 1 0.0 24.364331 -2.182301 187.046644
15542   1 1 0.0 26.243759 -5.464855 179.861994
15543   1 1 0.0 25.524923 -2.221791 184.033795
15544   1 1 0.0 24.291849 -3.164999 180.783566
15545   1 2 0.0 26.066434 -3.825683 186.578936
15546   1 2 0.0 24.678918 -3.587046 178.790557
15547   1 2 0.0 30.932559 -6.689793 181.936550
15548   1 2 0.0 25.567279 -3.143084 182.363924
15549   1 2 0.0 21.838800 -1.439249 180.916556
15550   1 2 0.0 24.528687 -1.782900 185.725891
15551   1 2 0.0 25.081284 -4.211038 180.861613
15552   1 2 0.0 28.664828 -6.674725 179.454972
15553   1 1 0.0 19.037004 4.174119 194.145224
15554   1 1 0.0 20.164795 0.563648 186.960574
15555   1 1 0.0 20.161810 3.885421 191.132375
15556   1 1 0.0 18.754432 3.230137 187.882146
15557   1 2 0.0 20.344919 2.202514 193.677516
15558   1 2 0.0 19.041443 2.734586 185.889137
15559   1 2 0.0 24.479398 -1.643050 189.035130
15560   1 2 0.0 20.004610 2.976651 189.462504
15561   1 2 0.0 16.730972 5.444020 188.015136
15562   1 2 0.0 19.283579 4.528710 192.824471
15563   1 2 0.0 19.299867 2.038540 187.960193
15564   1 2 0.0 22.268210 -1.139586 186.553552
15565   1 1 0.0 15.204837 11.529319 201.243804
15566   1 1 0.0 15.527981 7.760634 194.059154
15567   1 1 0.0 16.240987 11.004984 198.230955
15568   1 1 0.0 14.725455 10.668423 194.980726
15569   1 2 0.0 16.057086 9.322164 200.776096
15570   1 2 0.0 14.898918 10.122661 192.987717
15571   1 2 0.0 19.265589 4.675897 196.133710
15572   1 2 0.0 15.891620 10.151452 196.561084
15573   1 2 0.0 13.226694 13.266380 195.113716
15574   1 2 0.0 15.522040 11.822434 199.923051
15575   1 2 0.0 15.001254 9.387276 195.058773
15576   1 2 0.0 17.214875 5.644092 193.652132
15577   1 1 0.0 13.047952 19.537585 3.020508
15578   1 1 0.0 12.551260 15.787824 201.157734
15579   1 1 0.0 13.946744 18.802257 0.007659
15580   1 1 0.0 12.394293 18.800240 202.079306
15581   1 2 0.0 13.404477 17.198621 2.552800
15582   1 2 0.0 12.446054 18.229918 200.086297
15583   1 2 0.0 15.536195 11.970039 203.232290
15584   1 2 0.0 13.421632 18.044081 203.659664
15585   1 2 0.0 11.490676 21.660160 202.212296
15586   1 2 0.0 13.420873 19.755446 1.699755
15587   1 2 0.0 12.387492 17.489760 202.157353
15588   1 2 0.0 13.742345 13.357458 200.750712
15589   1 1 0.0 12.667728 27.822505 10.119088
15590   1 1 0.0 11.374546 24.267917 2.934438
15591   1 1 0.0 13.386917 26.910748 7.106239
15592   1 1 0.0 11.870515 27.243368 3.856010
15593   1 2 0.0 12.511772 25.461670 9.651380
15594   1 2 0.0 11.798142 26.675294 1.863001
15595   1 2 0.0 13.466508 19.896532 5.008994
15596   1 2 0.0 12.710740 26.283564 5.436368
15597   1 2 0.0 11.604515 30.230826 3.989000
15598   1 2 0.0 13.078839 27.954873 8.798335
15599   1 2 0.0 11.581435 25.965151 3.934057
15600   1 2 0.0 12.013837 21.637961 2.527416
15601   1 1 0.0 14.082037 35.994665 17.217668
15602   1 1 0.0 12.053149 32.802327 10.033018
15603   1 1 0.0 14.587818 34.949333 14.204819
15604   1 1 0.0 13.178742 35.600957 10.954590
15605   1 2 0.0 13.420930 33.722926 16.749960
15606   1 2 0.0 12.985636 35.061831 8.961581
15607   1 2 0.0 13.153809 28.082807 12.107574
15608   1 2 0.0 13.792360 34.482621 12.534948
15609   1 2 0.0 13.562862 38.575535 11.087580
15610   1 2 0.0 14.512015 36.035318 15.896915
15611   1 2 0.0 12.620970 34.415084 11.032637
15612   1 2 0.0 12.110598 30.096396 9.625996
15613   1 1 0.0 17.224402 43.669951 24.316248
15614   1 1 0.0 14.555171 40.989911 17.131598
15615   1 1 0.0 17.493003 42.540178 21.303399
15616   1 1 0.0 16.257482 43.480177 18.053170
15617   1 2 0.0 16.089219 41.594085 23.848540
15618   1 2 0.0 15.952721 42.995341 16.060161
15619   1 2 0.0 14.612796 36.144088 19.206154
15620   1 2 0.0 16.615652 42.255875 19.633528
15621   1 2 0.0 17.273667 46.302062 18.186160
15622   1 2 0.0 17.653037 43.616978 22.995495
15623   1 2 0.0 15.457235 42.442387 18.131217
15624   1 2 0.0 14.028077 38.335192 16.724576
15625   1 1 0.0 21.947124 50.487603 31.414828
15626   1 1 0.0 18.763011 48.445830 24.230178
15627   1 1 0.0 21.965920 49.326491 28.401979
15628   1 1 0.0 20.962027 50.510683 25.151750
15629   1 2 0.0 20.391220 48.705181 30.947120
15630   1 2 0.0 20.559934 50.102924 23.158741
15631   1 2 0.0 17.774892 43.701471 26.304734
15632   1 2 0.0 21.047913 49.237959 26.732108
15633   1 2 0.0 22.562514 53.047237 25.284740
15634   1 2 0.0 22.354268 50.343494 30.094075
15635   1 2 0.0 19.956918 49.669755 25.229797
15636   1 2 0.0 17.676150 45.967101 23.823156
15637   1 1 0.0 28.028221 56.127171 38.513408
15638   1 1 0.0 24.478889 54.819635 31.328758
15639   1 1 0.0 27.796328 54.989296 35.500559
15640   1 1 0.0 27.071250 56.362020 32.250330
15641   1 2 0.0 26.124729 54.721973 38.045700
15642   1 2 0.0 26.590725 56.050505 30.257321
15643   1 2 0.0 22.491469 50.399739 33.403314
15644   1 2 0.0 26.880815 55.100697 33.830688
15645   1 2 0.0 29.180810 58.494019 32.383320
15646   1 2 0.0 28.394738 55.898700 37.192655
15647   1 2 0.0 25.908522 55.757480 32.328377
15648   1 2 0.0 22.883346 52.633404 30.921736
15649   1 1 0.0 35.181865 60.323581 45.611988
15650   1 1 0.0 31.434142 59.811739 38.427338
15651   1 1 0.0 34.710183 59.262426 42.599139
15652   1 1 0.0 34.297999 60.759161 39.348910
15653   1 2 0.0 33.020254 59.361655 45.144280
15654   1 2 0.0 33.761629 60.558531 37.355901
15655   1 2 0.0 28.540837 55.924053 40.501894
15656   1 2 0.0 33.840195 59.568524 40.929268
15657   1 2 0.0 36.817479 62.386394 39.481900
15658   1 2 0.0 35.490527 60.021486 44.291235
15659   1 2 0.0 33.032305 60.419424 39.426957
15660   1 2 0.0 29.404911 58.020765 38.020316
15661   1 1 0.0 39.523188 58.797059 54.034655
15662   1 1 0.0 34.707331 58.710341 48.386122
15663   1 1 0.0 39.492170 57.500305 50.622048
15664   1 1 0.0 38.161191 59.088798 48.682977
15665   1 2 0.0 37.444449 58.223981 53.503645
15666   1 2 0.0 37.730417 58.820956 46.713491
15667   1 2 0.0 33.433475 55.354139 48.440032
15668   1 2 0.0 38.320209 57.962971 49.442227
15669   1 2 0.0 40.131328 60.390338 49.411789
15670   1 2 0.0 40.040318 58.268994 52.510114
15671   1 2 0.0 36.586783 59.056656 49.067604
15672   1 2 0.0 33.295382 57.197052 47.293793
15673   1 1 0.0 46.982109 60.453284 61.133235
15674   1 1 0.0 42.260741 61.406536 55.484702
15675   1 1 0.0 46.672338 59.193690 57.720628
15676   1 1 0.0 45.714996 61.031710 55.781557
15677   1 2 0.0 44.828710 60.341692 60.602225
15678   1 2 0.0 45.236621 60.863004 53.812071
15679   1 2 0.0 40.293481 58.403755 55.538612
15680   1 2 0.0 45.627635 59.898069 56.540807
15681   1 2 0.0 47.919345 61.878051 56.510369
15682   1 2 0.0 47.373274 59.826175 59.608694
15683   1 2 0.0 44.170662 61.339645 56.166184
15684   1 2 0.0 40.555825 60.233120 54.392373
15685   1 1 0.0 54.622690 60.463011 68.231815
15686   1 1 0.0 50.217729 62.411427 62.583282
15687   1 1 0.0 54.048726 59.299783 64.819208
15688   1 1 0.0 53.510021 61.300936 62.880137
15689   1 2 0.0 52.495848 60.818150 67.700805
15690   1 2 0.0 53.006527 61.239296 60.910651
15691   1 2 0.0 47.649532 59.903207 62.637192
15692   1 2 0.0 53.180386 60.212766 63.639387
15693   1 2 0.0 55.844971 61.652297 63.608949
15694   1 2 0.0 54.869505 59.766335 66.707274
15695   1 2 0.0 52.068348 61.934475 63.264764
15696   1 2 0.0 48.299982 61.633038 61.490953
15697   1 1 0.0 62.085803 58.825783 75.330395
15698   1 1 0.0 58.204295 61.677782 69.681862
15699   1 1 0.0 61.274625 57.813594 71.917788
15700   1 1 0.0 61.179876 59.883822 69.978717
15701   1 2 0.0 60.085486 59.630961 74.799385
15702   1 2 0.0 60.674930 59.932146 68.009231
15703   1 2 0.0 55.155873 59.782016 69.735772
15704   1 2 0.0 60.623461 58.892269 70.737967
15705   1 2 0.0 63.535678 59.723688 70.707529
15706   1 2 0.0 62.176667 58.092285 73.805854
15707   1 2 0.0 59.908627 60.813186 70.363344
15708   1 2 0.0 56.163856 61.331006 68.589533
15709   1 1 0.0 69.020660 55.618553 82.428975
15710   1 1 0.0 65.845047 59.240084 76.780442
15711   1 1 0.0 68.010396 54.804981 79.016368
15712   1 1 0.0 68.364057 56.846976 77.077297
15713   1 2 0.0 67.240889 56.835924 81.897965
15714   1 2 0.0 67.881393 57.002992 75.107811
15715   1 2 0.0 62.459685 58.045879 76.834352
15716   1 2 0.0 67.607016 55.998647 77.836547
15717   1 2 0.0 70.629981 56.182874 77.806109
15718   1 2 0.0 68.951303 54.882710 80.904434
15719   1 2 0.0 67.322984 58.028483 77.461924
15720   1 2 0.0 63.777823 59.341220 75.688113
15721   1 1 0.0 75.101305 50.992072 89.527555
15722   1 1 0.0 72.780849 55.212911 83.879022
15723   1 1 0.0 73.939439 50.415356 86.114948
15724   1 1 0.0 74.724887 52.333138 84.175877
15725   1 2 0.0 73.625733 52.564416 88.996545
15726   1 2 0.0 74.287192 52.589513 82.206391
15727   1 2 0.0 69.217668 54.776398 83.932932
15728   1 2 0.0 73.802802 51.667906 84.935127
15729   1 2 0.0 76.794429 51.196283 84.904689
15730   1 2 0.0 74.874986 50.288470 88.003014
15731   1 2 0.0 73.962924 53.711254 84.560504
15732   1 2 0.0 70.784005 55.757207 82.786693
15733   1 1 0.0 80.041930 45.163796 96.626135
15734   1 1 0.0 78.685699 49.785553 90.977602
15735   1 1 0.0 78.783073 44.851043 93.213528
15736   1 1 0.0 79.963389 46.554472 91.274457
15737   1 2 0.0 78.939913 47.017208 96.095125
15738   1 2 0.0 79.591235 46.899156 89.304971
15739   1 2 0.0 75.112178 50.127248 91.031512
15740   1 2 0.0 78.919602 46.103605 92.033707
15741   1 2 0.0 81.739275 44.998299 92.003269
15742   1 2 0.0 79.669287 44.525507 95.101594
15743   1 2 0.0 79.516350 48.064422 91.659084
15744   1 2 0.0 76.853092 50.747424 89.885273
15745   1 1 0.0 83.610310 38.407670 103.724715
15746   1 1 0.0 83.282051 43.213109 98.076182
15747   1 1 0.0 82.313633 38.373581 100.312108
15748   1 1 0.0 83.833339 39.782591 98.373037
15749   1 2 0.0 82.933647 40.455035 103.193705
15750   1 2 0.0 83.544219 40.199382 96.403551
15751   1 2 0.0 79.866157 44.316953 98.130092
15752   1 2 0.0 82.716910 39.567281 99.132287
15753   1 2 0.0 85.232098 37.880245 99.101849
15754   1 2 0.0 83.108859 37.864695 102.200174
15755   1 2 0.0 83.722237 41.353402 98.757664
15756   1 2 0.0 81.699819 44.547346 96.983853
15757   1 1 0.0 85.638724 31.041252 110.823295
15758   1 1 0.0 86.353865 35.804505 105.174762
15759   1 1 0.0 84.365173 31.287429 107.410688
15760   1 1 0.0 86.152839 32.335793 105.471617
15761   1 2 0.0 85.419219 33.186339 110.292285
15762   1 2 0.0 85.960342 32.805101 103.502131
15763   1 2 0.0 83.256154 37.618613 105.228672
15764   1 2 0.0 85.016243 32.366160 106.230867
15765   1 2 0.0 87.108724 30.176688 106.200429
15766   1 2 0.0 85.032033 30.619113 109.298754
15767   1 2 0.0 86.382895 33.893633 105.856244
15768   1 2 0.0 85.096378 37.448393 104.082433
15769   1 1 0.0 86.031828 23.410784 117.921875
15770   1 1 0.0 87.756757 27.907964 112.273342
15771   1 1 0.0 84.841265 23.925656 114.509268
15772   1 1 0.0 86.812866 24.564097 112.570197
15773   1 2 0.0 86.279799 25.552767 117.390865
15774   1 2 0.0 86.726040 25.063863 110.600711
15775   1 2 0.0 85.122830 30.347068 112.327252
15776   1 2 0.0 85.709526 24.838714 113.329447
15777   1 2 0.0 87.280947 22.249719 113.299009
15778   1 2 0.0 85.348414 23.129322 116.397334
15779   1 2 0.0 87.373266 26.035744 112.954824
15780   1 2 0.0 86.883120 29.784237 111.181013
15781   1 1 0.0 84.771147 15.874920 125.020455
15782   1 1 0.0 87.424787 19.894646 119.371922
15783   1 1 0.0 83.719531 16.634286 121.607848
15784   1 1 0.0 85.782396 16.832796 119.668777
15785   1 2 0.0 85.474939 17.913119 124.489445
15786   1 2 0.0 85.805322 17.339530 117.699291
15787   1 2 0.0 85.378446 22.844102 119.425832
15788   1 2 0.0 84.764173 17.338755 120.428027
15789   1 2 0.0 85.740673 14.471926 120.397589
15790   1 2 0.0 84.043133 15.747364 123.495914
15791   1 2 0.0 86.646801 18.149077 120.053404
15792   1 2 0.0 86.976062 21.915114 118.279593
15793   1 1 0.0 81.915936 8.787865 132.119035
15794   1 1 0.0 85.373558 12.141200 126.470502
15795   1 1 0.0 81.052696 9.756034 128.706428
15796   1 1 0.0 83.109864 9.505282 126.767357
15797   1 2 0.0 83.042468 10.626480 131.588025
15798   1 2 0.0 83.241464 9.995166 124.797871
15799   1 2 0.0 84.010986 15.462375 126.524412
15800   1 2 0.0 82.224617 10.218801 127.526607
15801   1 2 0.0 82.560299 7.208888 127.496169
15802   1 2 0.0 81.177540 8.820212 130.594494
15803   1 2 0.0 84.237644 10.604329 127.151984
15804   1 2 0.0 85.370838 14.210894 125.378173
15805   1 1 0.0 77.600398 2.482732 139.217615
15806   1 1 0.0 81.699484 5.012059 133.569082
15807   1 1 0.0 76.966108 3.614196 135.805008
15808   1 1 0.0 78.920887 2.925969 133.865937
15809   1 2 0.0 79.096720 4.035342 138.686605
15810   1 2 0.0 79.154976 3.375977 131.896451
15811   1 2 0.0 81.084727 8.548848 133.622992
15812   1 2 0.0 78.210225 3.813511 134.625187
15813   1 2 0.0 77.889310 0.801988 134.594749
15814   1 2 0.0 76.886326 2.673460 137.693074
15815   1 2 0.0 80.259033 3.756123 134.250564
15816   1 2 0.0 82.142896 7.033699 132.476753
15817   1 1 0.0 72.027375 -2.744120 146.316195
15818   1 1 0.0 76.575257 -1.157687 140.667662
15819   1 1 0.0 71.651849 -1.502543 142.903588
15820   1 1 0.0 73.412359 -2.595897 140.964517
15821   1 2 0.0 73.823155 -1.550491 145.785185
15822   1 2 0.0 73.737934 -2.206917 138.995031
15823   1 2 0.0 76.737209 2.428478 140.721572
15824   1 2 0.0 72.909685 -1.576048 141.723767
15825   1 2 0.0 71.947257 -4.447632 141.693329
15826   1 2 0.0 71.371192 -2.403975 144.791654
15827   1 2 0.0 74.897975 -2.073655 141.349144
15828   1 2 0.0 77.443960 0.720876 139.575333
15829   1 1 0.0 65.458815 -6.647016 153.414775
15830   1 1 0.0 70.241729 -6.078042 147.766242
15831   1 1 0.0 65.359704 -5.353682 150.002168
15832   1 1 0.0 66.843195 -6.800773 148.063097
15833   1 2 0.0 67.469648 -5.868472 152.883765
15834   1 2 0.0 67.244953 -6.491103 146.093611
15835   1 2 0.0 71.172779 -2.611062 147.820152
15836   1 2 0.0 66.572136 -5.696554 148.822347
15837   1 2 0.0 65.013432 -8.293225 148.791909
15838   1 2 0.0 64.891362 -6.173441 151.890234
15839   1 2 0.0 68.406453 -6.610990 148.447724
15840   1 2 0.0 71.494892 -4.430854 146.673913
15841   1 1 0.0 58.203459 -9.042507 160.513355
15842   1 1 0.0 62.996595 -9.517737 154.864822
15843   1 1 0.0 58.385421 -7.758208 157.100748
15844   1 1 0.0 59.522166 -9.491017 155.161677
15845   1 2 0.0 60.334828 -8.715642 159.982345
15846   1 2 0.0 59.981223 -9.275214 153.192191
15847   1 2 0.0 64.652981 -6.332899 154.918732
15848   1 2 0.0 59.495462 -8.354329 155.920927
15849   1 2 0.0 57.413746 -10.554037 155.890489
15850   1 2 0.0 57.751408 -8.457762 158.988814
15851   1 2 0.0 61.089587 -9.642613 155.546304
15852   1 2 0.0 64.575315 -8.179346 153.772493
15853   1 1 0.0 50.602328 -9.817999 167.611935
15854   1 1 0.0 55.180396 -11.315095 161.963402
15855   1 1 0.0 51.056811 -8.603100 164.199328
15856   1 1 0.0 51.793379 -10.540181 162.260257
15857   1 2 0.0 52.754055 -9.958177 167.080925
15858   1 2 0.0 52.288159 -10.428387 160.290771
15859   1 2 0.0 57.484262 -8.562096 162.017312
15860   1 2 0.0 52.012287 -9.424452 163.019507
15861   1 2 0.0 49.505404 -11.123804 162.989069
15862   1 2 0.0 50.286928 -9.149569 166.087394
15863   1 2 0.0 53.291292 -11.026031 162.644884
15864   1 2 0.0 57.010468 -10.348410 160.871073
15865   1 1 0.0 43.012698 -8.937041 174.710515
15866   1 1 0.0 47.160515 -11.385636 169.061982
15867   1 1 0.0 43.718340 -7.848646 171.297908
15868   1 1 0.0 44.020110 -9.898951 169.358837
15869   1 2 0.0 45.083644 -9.537673 174.179505
15870   1 2 0.0 44.527356 -9.896421 167.389351
15871   1 2 0.0 50.003574 -9.193874 169.115892
15872   1 2 0.0 44.474339 -8.856623 170.118087
15873   1 2 0.0 41.660121 -9.975746 170.087649
15874   1 2 0.0 42.848773 -8.216344 173.185974
15875   1 2 0.0 45.378107 -10.696219 169.743464
15876   1 2 0.0 49.155922 -10.836093 167.969653
15877   1 1 0.0 35.791302 -6.441042 181.809095
15878   1 1 0.0 39.313909 -9.726044 176.160562
15879   1 1 0.0 36.714935 -5.530308 178.396488
15880   1 1 0.0 36.567724 -7.597467 176.457417
15881   1 2 0.0 37.684128 -7.473896 181.278085
15882   1 2 0.0 37.063594 -7.704320 174.487931
15883   1 2 0.0 42.562529 -8.198539 176.214472
15884   1 2 0.0 37.235925 -6.677532 177.216667
15885   1 2 0.0 34.246647 -7.163823 177.186229
15886   1 2 0.0 35.786556 -5.701953 180.284554
15887   1 2 0.0 37.721976 -8.668678 176.842044
15888   1 2 0.0 41.380860 -9.619474 175.068233
15889   1 1 0.0 29.277566 -2.447320 188.907675
15890   1 1 0.0 32.009391 -6.414326 183.259142
15891   1 1 0.0 30.375777 -1.757054 185.495068
15892   1 1 0.0 29.786504 -3.743905 183.555997
15893   1 2 0.0 30.903303 -3.863850 188.376665
15894   1 2 0.0 30.247691 -3.955119 181.586511
15895   1 2 0.0 35.510878 -5.622873 183.313052
15896   1 2 0.0 30.637269 -2.989602 184.315247
15897   1 2 0.0 27.613436 -2.820204 184.284809
15898   1 2 0.0 29.432223 -1.724577 187.383134
15899   1 2 0.0 30.682758 -5.038710 183.940624
15900   1 2 0.0 34.050734 -6.755737 182.166813
15901   1 1 0.0 23.777654 2.856409 196.006255
15902   1 1 0.0 25.590293 -1.606140 190.357722
15903   1 1 0.0 24.998824 3.293762 192.593648
15904   1 1 0.0 23.995186 1.480608 190.654577
15905   1 2 0.0 25.059888 1.122785 195.475245
15906   1 2 0.0 24.400014 1.174961 188.685091
15907   1 2 0.0 29.180067 -1.587941 190.411632
15908   1 2 0.0 24.988527 2.033823 191.413827
15909   1 2 0.0 22.072268 2.850947 191.383389
15910   1 2 0.0 24.084445 3.528834 194.481714
15911   1 2 0.0 24.591316 0.023068 191.039204
15912   1 2 0.0 27.510080 -2.379486 189.265393
15913   1 1 0.0 19.550077 9.220855 203.104835
15914   1 1 0.0 20.358332 4.472515 197.456302
15915   1 1 0.0 20.836808 9.384738 199.692228
15916   1 1 0.0 19.465980 7.830503 197.753157
15917   1 2 0.0 20.428540 7.251621 202.573825
15918   1 2 0.0 19.795418 7.444789 195.783671
15919   1 2 0.0 23.867663 3.716605 197.510212
15920   1 2 0.0 20.555206 8.156628 198.512407
15921   1 2 0.0 17.883593 9.583073 198.481969
15922   1 2 0.0 19.994582 9.811356 201.580294
15923   1 2 0.0 19.733965 6.278738 198.137784
15924   1 2 0.0 22.066326 3.303584 196.363973
15925   1 1 0.0 16.793544 16.346870 4.881539
15926   1 1 0.0 16.559423 11.535925 204.554882
15927   1 1 0.0 18.085356 16.229581 1.468932
15928   1 1 0.0 16.411769 15.007319 204.851737
15929   1 2 0.0 17.226945 14.234587 4.350529
15930   1 2 0.0 16.650335 14.559668 202.882251
15931   1 2 0.0 19.823363 10.041435 204.608792
15932   1 2 0.0 17.545685 15.091025 0.289111
15933   1 2 0.0 15.244291 17.059742 0.258673
15934   1 2 0.0 17.354869 16.827692 3.356998
15935   1 2 0.0 16.339014 13.434265 205.236364
15936   1 2 0.0 17.975345 10.026353 203.462553
15937   1 1 0.0 15.637618 23.899512 11.980119
15938   1 1 0.0 14.372127 19.252090 6.331586
15939   1 1 0.0 16.873792 23.506563 8.567512
15940   1 1 0.0 14.976110 22.673724 6.628441
15941   1 2 0.0 15.605586 21.743462 11.449109
15942   1 2 0.0 15.112591 22.185177 4.658955
15943   1 2 0.0 17.237262 17.089266 6.385496
15944   1 2 0.0 16.101419 22.511078 7.387691
15945   1 2 0.0 14.278416 24.929532 7.357253
15946   1 2 0.0 16.289380 24.248056 10.455578
15947   1 2 0.0 14.566035 21.153320 7.013068
15948   1 2 0.0 15.429424 17.472830 5.239257
15949   1 1 0.0 16.136633 31.523787 19.078699
15950   1 1 0.0 13.899252 27.258329 13.430166
15951   1 1 0.0 17.259065 30.873648 15.666092
15952   1 1 0.0 15.226484 30.469377 13.727021
15953   1 2 0.0 15.640674 29.425311 18.547689
15954   1 2 0.0 15.254464 29.962897 11.757535
15955   1 2 0.0 16.230912 24.528830 13.484076
15956   1 2 0.0 16.290292 30.068022 14.486271
15957   1 2 0.0 15.031367 32.822540 14.455833
15958   1 2 0.0 16.848196 31.723669 17.554158
15959   1 2 0.0 14.498363 29.073085 14.111648
15960   1 2 0.0 14.548228 25.293011 12.337837
15961   1 1 0.0 18.267131 38.861330 26.177279
15962   1 1 0.0 15.163025 35.178325 20.528746
15963   1 1 0.0 19.223064 37.984560 22.764672
15964   1 1 0.0 17.151123 38.027859 20.825601
15965   1 2 0.0 17.330557 36.919062 25.646269
15966   1 2 0.0 17.069286 37.527252 18.856115
15967   1 2 0.0 16.851616 32.010445 20.582656
15968   1 2 0.0 18.103428 37.406661 21.584851
15969   1 2 0.0 17.467753 40.367772 21.554413
15970   1 2 0.0 19.005052 38.903156 24.652738
15971   1 2 0.0 16.139179 36.821310 21.210228
15972   1 2 0.0 15.373177 33.119325 19.436417
15973   1 1 0.0 21.928976 45.567258 33.275859
15974   1 1 0.0 18.104045 42.639818 27.627326
15975   1 1 0.0 22.673478 44.505067 29.863252
15976   1 1 0.0 20.659562 44.993901 27.924181
15977   1 2 0.0 20.595807 43.872490 32.744849
15978   1 2 0.0 20.471756 44.522697 25.954695
15979   1 2 0.0 19.070198 39.182456 27.681236
15980   1 2 0.0 21.455604 44.182057 28.683431
15981   1 2 0.0 21.473058 47.210581 28.652993
15982   1 2 0.0 22.658568 45.449062 31.751318
15983   1 2 0.0 19.411360 44.033805 28.308808
15984   1 2 0.0 17.865494 40.583915 26.534997
15985   1 1 0.0 26.950048 51.326373 40.374439
15986   1 1 0.0 22.584076 49.292095 34.725906
15987   1 1 0.0 27.448126 50.128687 36.961832
15988   1 1 0.0 25.586895 51.040080 35.022761
15989   1 2 0.0 25.282948 49.958764 39.843429
15990   1 2 0.0 25.301947 50.620426 33.053275
15991   1 2 0.0 22.782380 45.707757 34.779816
15992   1 2 0.0 26.189257 50.075749 35.782011
15993   1 2 0.0 26.859020 53.029337 35.751573
15994   1 2 0.0 27.637020 51.053710 38.849898
15995   1 2 0.0 24.161105 50.371564 35.407388
15996   1 2 0.0 21.908036 47.335922 33.633577
15997   1 1 0.0 33.094345 55.867980 47.473019
15998   1 1 0.0 28.392543 54.822481 41.824486
15999   1 1 0.0 33.322587 54.591093 44.060412
16000   1 1 0.0 31.701525 55.882207 42.121341
16001   1 2 0.0 31.171671 54.891812 46.942009
16002   1 2 0.0 31.332828 55.533828 40.151855
16003   1 2 0.0 27.813677 51.279641 41.878396
16004   1 2 0.0 32.081894 54.810716 42.880591
16005   1 2 0.0 33.372485 57.550540 42.850153
16006   1 2 0.0 33.706406 55.453666 45.948478
16007   1 2 0.0 30.165161 55.536694 42.505968
16008   1 2 0.0 27.310789 53.057984 40.732157
16009   1 1 0.0 39.140002 54.328094 53.574774
16010   1 1 0.0 33.784717 54.312286 49.059575
16011   1 1 0.0 39.477840 52.863608 50.031315
16012   1 1 0.0 37.272028 54.584768 49.102680
16013   1 2 0.0 37.401175 53.775454 52.898442
16014   1 2 0.0 36.914151 54.242150 47.218549
16015   1 2 0.0 34.377746 50.892673 47.513119
16016   1 2 0.0 38.036158 53.391070 49.252141
16017   1 2 0.0 38.618569 55.968919 50.237820
16018   1 2 0.0 39.765828 53.704062 52.004616
16019   1 2 0.0 35.657667 54.627252 49.594696
16020   1 2 0.0 33.058029 52.751656 47.505394
16021   1 1 0.0 45.644760 56.171932 60.673354
16022   1 1 0.0 40.411924 57.310687 56.158155
16023   1 1 0.0 45.659027 54.669051 57.129895
16024   1 1 0.0 43.876005 56.825167 56.201260
16025   1 2 0.0 43.827691 56.007038 59.997022
16026   1 2 0.0 43.452696 56.567732 54.317129
16027   1 2 0.0 40.254008 53.843627 54.611699
16028   1 2 0.0 44.364906 55.494834 56.350721
16029   1 2 0.0 45.489218 57.886577 57.336400
16030   1 2 0.0 46.121384 55.427685 59.103196
16031   1 2 0.0 42.308740 57.214586 56.693276
16032   1 2 0.0 39.365962 55.943352 54.603974
16033   1 1 0.0 52.394037 56.570507 67.771934
16034   1 1 0.0 47.529609 58.810300 63.256735
16035   1 1 0.0 52.084062 55.099871 64.228475
16036   1 1 0.0 50.807638 57.589599 63.299840
16037   1 2 0.0 50.584133 56.801110 67.095602
16038   1 2 0.0 50.338794 57.429447 61.415709
16039   1 2 0.0 46.628171 55.458756 61.710279
16040   1 2 0.0 50.998332 56.185161 63.449301
16041   1 2 0.0 52.611697 58.278378 64.434980
16042   1 2 0.0 52.699057 55.741027 66.201776
16043   1 2 0.0 49.361135 58.307649 63.791856
16044   1 2 0.0 46.213535 57.700529 61.702554
16045   1 1 0.0 59.070600 55.505086 74.870514
16046   1 1 0.0 54.803221 58.740640 70.355315
16047   1 1 0.0 58.450953 54.135819 71.327055
16048   1 1 0.0 57.741121 56.842134 70.398420
16049   1 2 0.0 57.352931 56.120346 74.194182
16050   1 2 0.0 57.248779 56.786793 68.514289
16051   1 2 0.0 53.200631 55.662143 68.808859
16052   1 2 0.0 57.624644 55.429603 70.547881
16053   1 2 0.0 59.651231 57.125908 71.533560
16054   1 2 0.0 59.189679 54.629360 73.300356
16055   1 2 0.0 56.483370 57.855064 70.890436
16056   1 2 0.0 53.278895 57.940595 68.801134
16057   1 1 0.0 65.360630 53.025745 81.969094
16058   1 1 0.0 61.890880 57.104981 77.453895
16059   1 1 0.0 64.460436 51.822207 78.425635
16060   1 1 0.0 64.350562 54.617905 77.497000
16061   1 2 0.0 63.815932 53.996745 81.292762
16062   1 2 0.0 63.857863 54.669976 75.612869
16063   1 2 0.0 59.662463 54.444229 75.907439
16064   1 2 0.0 63.932388 53.263674 77.646461
16065   1 2 0.0 66.276941 54.483336 78.632140
16066   1 2 0.0 65.288171 52.144936 80.398936
16067   1 2 0.0 63.340680 55.878106 77.989016
16068   1 2 0.0 60.229948 56.652267 75.899714
16069   1 1 0.0 70.968479 49.249022 89.067674
16070   1 1 0.0 68.459445 53.980203 84.552475
16071   1 1 0.0 69.830049 48.267781 85.524215
16072   1 1 0.0 70.325297 51.021457 84.595580
16073   1 2 0.0 69.669357 50.530120 88.391342
16074   1 2 0.0 69.855400 51.178493 82.711449
16075   1 2 0.0 65.709944 51.862260 83.006019
16076   1 2 0.0 69.625082 49.789180 84.745041
16077   1 2 0.0 72.177401 50.474871 85.730720
16078   1 2 0.0 70.707887 48.404530 87.497516
16079   1 2 0.0 69.610752 52.469695 85.087596
16080   1 2 0.0 66.739977 53.896099 82.998294
16081   1 1 0.0 75.630562 44.352432 96.166254
16082   1 1 0.0 74.200175 49.513181 91.651055
16083   1 1 0.0 74.307406 43.639611 92.622795
16084   1 1 0.0 75.384497 46.221834 91.694160
16085   1 2 0.0 74.638078 45.883415 95.489922
16086   1 2 0.0 74.959489 46.476453 89.810029
16087   1 2 0.0 71.058824 48.037595 90.104599
16088   1 2 0.0 74.435153 45.169429 91.843621
16089   1 2 0.0 77.075272 45.288920 92.829300
16090   1 2 0.0 75.194086 43.583951 94.596096
16091   1 2 0.0 74.998875 47.790037 92.186176
16092   1 2 0.0 72.502991 49.801639 90.096874
16093   1 1 0.0 79.127748 38.566129 103.264834
16094   1 1 0.0 78.843241 43.913875 98.749635
16095   1 1 0.0 77.682058 38.155232 99.721375
16096   1 1 0.0 79.290367 40.444630 98.792740
16097   1 2 0.0 78.488552 40.275035 102.588502
16098   1 2 0.0 78.930223 40.784865 96.908609
16099   1 2 0.0 75.457693 43.150003 97.203179
16100   1 2 0.0 78.136515 39.621565 98.942201
16101   1 2 0.0 80.740341 39.169239 99.927880
16102   1 2 0.0 78.535904 37.909779 101.694676
16103   1 2 0.0 79.251792 42.059090 99.284756
16104   1 2 0.0 77.248113 44.561338 97.195454
16105   1 1 0.0 81.295659 32.162086 110.363414
16106   1 1 0.0 82.170406 37.445471 105.848215
16107   1 1 0.0 79.795387 32.072426 106.819955
16108   1 1 0.0 81.859318 33.961391 105.891320
16109   1 2 0.0 81.039796 33.968592 109.687082
16110   1 2 0.0 81.580967 34.371249 104.007189
16111   1 2 0.0 78.699789 37.429217 104.301759
16112   1 2 0.0 80.555193 33.406352 106.040781
16113   1 2 0.0 83.000339 32.403470 107.026460
16114   1 2 0.0 80.576266 31.648718 108.793256
16115   1 2 0.0 82.169604 35.546222 106.383336
16116   1 2 0.0 80.752308 38.421505 104.294034
16117   1 1 0.0 82.032398 25.441311 117.461994
16118   1 1 0.0 84.025282 30.411999 112.946795
16119   1 1 0.0 80.548061 25.677101 113.918535
16120   1 1 0.0 82.970603 27.076848 112.989900
16121   1 2 0.0 82.171893 27.260506 116.785662
16122   1 2 0.0 82.787128 27.537065 111.105769
16123   1 2 0.0 80.632727 31.144128 111.400339
16124   1 2 0.0 81.577503 26.815922 113.139361
16125   1 2 0.0 83.749040 25.309623 114.125040
16126   1 2 0.0 81.219268 25.095053 115.891836
16127   1 2 0.0 83.615166 28.557559 113.481916
16128   1 2 0.0 82.850871 31.670730 111.392614
16129   1 1 0.0 81.303336 18.719698 124.560574
16130   1 1 0.0 84.320686 23.144055 120.045375
16131   1 1 0.0 79.904701 19.269857 121.017115
16132   1 1 0.0 82.571989 20.114592 120.088480
16133   1 2 0.0 81.831632 20.466075 123.884242
16134   1 2 0.0 82.492013 20.603537 118.204349
16135   1 2 0.0 81.165652 24.590154 118.498919
16136   1 2 0.0 81.155393 20.160045 120.237941
16137   1 2 0.0 82.951252 18.221128 121.223620
16138   1 2 0.0 80.434689 18.556827 122.990416
16139   1 2 0.0 83.520532 21.421586 120.580496
16140   1 2 0.0 83.445161 24.626317 118.491194
16141   1 1 0.0 79.142741 12.313183 131.659154
16142   1 1 0.0 83.042732 15.983251 127.143955
16143   1 1 0.0 77.895548 13.151852 128.115695
16144   1 1 0.0 80.682212 13.401870 127.187060
16145   1 2 0.0 80.035007 13.904658 130.982822
16146   1 2 0.0 80.709494 13.896561 125.302929
16147   1 2 0.0 80.273515 18.075349 125.597499
16148   1 2 0.0 79.308704 13.751565 127.336521
16149   1 2 0.0 80.644475 11.471165 128.322200
16150   1 2 0.0 78.259406 12.341354 130.088996
16151   1 2 0.0 81.890151 14.473714 127.679076
16152   1 2 0.0 82.507246 17.619373 125.589774
16153   1 1 0.0 75.652166 6.522889 138.757734
16154   1 1 0.0 80.251489 9.266165 134.242535
16155   1 1 0.0 74.615038 7.610648 135.214275
16156   1 1 0.0 77.390095 7.254199 134.285640
16157   1 2 0.0 76.866464 7.884658 138.081402
16158   1 2 0.0 77.523355 7.731383 132.401509
16159   1 2 0.0 77.998249 11.905928 132.696079
16160   1 2 0.0 76.124234 7.891698 134.435101
16161   1 2 0.0 76.937132 5.377001 135.420780
16162   1 2 0.0 74.795662 6.740778 137.187576
16163   1 2 0.0 78.800654 8.040513 134.777656
16164   1 2 0.0 80.081211 10.979246 132.688354
16165   1 1 0.0 70.995679 1.620978 145.856314
16166   1 1 0.0 76.078153 3.308519 141.341115
16167   1 1 0.0 70.217363 2.906698 142.312855
16168   1 1 0.0 72.850379 1.960535 141.384220
16169   1 2 0.0 72.474933 2.689033 145.179982
16170   1 2 0.0 73.083351 2.397785 139.500089
16171   1 2 0.0 74.446799 6.371871 139.794659
16172   1 2 0.0 71.751664 2.855876 141.533681
16173   1 2 0.0 72.003481 0.225078 142.519360
16174   1 2 0.0 70.206265 2.018342 144.286156
16175   1 2 0.0 74.397257 2.424361 141.876236
16176   1 2 0.0 76.281087 5.018039 139.786934
16177   1 1 0.0 65.392148 -2.162149 152.954894
16178   1 1 0.0 70.718881 -1.609661 148.439695
16179   1 1 0.0 64.909226 -0.738899 149.411435
16180   1 1 0.0 67.276442 -2.230303 148.482800
16181   1 2 0.0 67.066828 -1.438009 152.278562
16182   1 2 0.0 67.598177 -1.853541 146.598669
16183   1 2 0.0 69.786091 1.733293 146.893239
16184   1 2 0.0 66.396516 -1.119205 148.632261
16185   1 2 0.0 66.075415 -3.742448 149.617940
16186   1 2 0.0 64.706927 -1.603985 151.384736
16187   1 2 0.0 68.886932 -2.110766 148.974816
16188   1 2 0.0 71.285488 0.015947 146.885514
16189   1 1 0.0 59.104954 -4.648672 160.053474
16190   1 1 0.0 64.425576 -5.257206 155.538275
16191   1 1 0.0 58.940125 -3.154789 156.510015
16192   1 1 0.0 60.930276 -5.121335 155.581380
16193   1 2 0.0 60.896346 -4.302484 159.377142
16194   1 2 0.0 61.325650 -4.822768 153.697249
16195   1 2 0.0 64.235194 -1.791777 153.991819
16196   1 2 0.0 60.310497 -3.846704 155.730841
16197   1 2 0.0 59.431571 -6.339092 156.716520
16198   1 2 0.0 58.556134 -3.955944 158.483316
16199   1 2 0.0 62.528680 -5.351706 156.073396
16200   1 2 0.0 65.329224 -3.791920 153.984094
16201   1 1 0.0 52.429613 -5.721719 167.152054
16202   1 1 0.0 57.494039 -7.462672 162.636855
16203   1 1 0.0 52.590625 -4.227420 163.608595
16204   1 1 0.0 54.110167 -6.576674 162.679960
16205   1 2 0.0 54.253516 -5.769754 166.475722
16206   1 2 0.0 54.560598 -6.370337 160.795829
16207   1 2 0.0 58.055013 -4.037654 161.090399
16208   1 2 0.0 53.779667 -5.198422 162.829421
16209   1 2 0.0 52.384229 -7.442806 163.815100
16210   1 2 0.0 52.042990 -4.926988 165.581896
16211   1 2 0.0 55.621356 -7.146125 163.171976
16212   1 2 0.0 58.692254 -6.226580 161.082674
16213   1 1 0.0 45.679884 -5.330853 174.250634
16214   1 1 0.0 50.250073 -8.122396 169.735435
16215   1 1 0.0 46.159170 -3.906374 170.707175
16216   1 1 0.0 47.136680 -6.527915 169.778540
16217   1 2 0.0 47.450571 -5.770854 173.574302
16218   1 2 0.0 47.620996 -6.423505 167.894409
16219   1 2 0.0 51.536036 -4.898773 168.188979
16220   1 2 0.0 47.110994 -5.110823 169.928001
16221   1 2 0.0 45.264632 -7.001710 170.913680
16222   1 2 0.0 45.473632 -4.471473 172.680476
16223   1 2 0.0 48.489624 -7.409680 170.270556
16224   1 2 0.0 51.686535 -7.173597 168.181254
16225   1 1 0.0 39.173025 -3.494446 181.349214
16226   1 1 0.0 43.034164 -7.205368 176.834015
16227   1 1 0.0 39.948056 -2.206742 177.805755
16228   1 1 0.0 40.337589 -4.977350 176.877120
16229   1 2 0.0 40.807267 -4.305731 180.672882
16230   1 2 0.0 40.833025 -4.979775 174.992989
16231   1 2 0.0 44.984672 -4.334661 175.287559
16232   1 2 0.0 40.617923 -3.588025 177.026581
16233   1 2 0.0 38.407422 -5.036539 178.012260
16234   1 2 0.0 39.156836 -2.610810 179.779056
16235   1 2 0.0 41.468695 -6.129984 177.369136
16236   1 2 0.0 44.641356 -6.588459 175.279834
16237   1 1 0.0 33.214875 -0.298815 188.447794
16238   1 1 0.0 36.185480 -4.754692 183.932595
16239   1 1 0.0 34.249222 0.791589 184.904335
16240   1 1 0.0 34.032469 -1.997859 183.975700
16241   1 2 0.0 34.635859 -1.443252 187.771462
16242   1 2 0.0 34.515739 -2.107006 182.091569
16243   1 2 0.0 38.708855 -2.371832 182.386139
16244   1 2 0.0 34.605648 -0.701604 184.125161
16245   1 2 0.0 32.134907 -1.639661 185.110840
16246   1 2 0.0 33.389512 0.567543 186.877636
16247   1 2 0.0 34.888573 -3.367185 184.467716
16248   1 2 0.0 37.887860 -4.498669 182.378414
16249   1 1 0.0 28.085485 4.105837 195.546374
16250   1 1 0.0 30.025929 -0.885556 191.031175
16251   1 1 0.0 29.330531 4.947689 192.002915
16252   1 1 0.0 28.517680 2.270512 191.074280
16253   1 2 0.0 29.226421 2.682041 194.870042
16254   1 2 0.0 28.966069 2.059774 189.190149
16255   1 2 0.0 33.003564 0.897457 189.484719
16256   1 2 0.0 29.356761 3.412770 191.223741
16257   1 2 0.0 26.741913 3.029262 192.209420
16258   1 2 0.0 28.442738 4.914197 193.976216
16259   1 2 0.0 29.058541 0.748857 191.566296
16260   1 2 0.0 31.743479 -1.002453 189.476994
16261   1 1 0.0 24.025950 9.512480 202.644954
16262   1 1 0.0 24.845027 4.220179 198.129755
16263   1 1 0.0 25.423175 10.066209 199.101495
16264   1 1 0.0 24.052431 7.627139 198.172860
16265   1 2 0.0 24.833210 7.876246 201.968622
16266   1 2 0.0 24.444863 7.324715 196.288729
16267   1 2 0.0 28.136964 5.319538 196.583299
16268   1 2 0.0 25.117977 8.561710 198.322321
16269   1 2 0.0 22.481926 8.750777 199.308000
16270   1 2 0.0 24.549027 10.224845 201.074796
16271   1 2 0.0 24.252629 6.024676 198.664876
16272   1 2 0.0 26.497018 3.735856 196.575574
16273   1 1 0.0 21.227079 15.666985 4.421658
16274   1 1 0.0 20.886290 10.322530 205.228335
16275   1 1 0.0 22.710809 15.906566 0.878199
16276   1 1 0.0 20.846603 13.820245 205.271440
16277   1 2 0.0 21.662720 13.895221 3.745326
16278   1 2 0.0 21.164632 13.440350 203.387309
16279   1 2 0.0 24.337800 10.686561 203.681879
16280   1 2 0.0 22.088528 14.503202 0.099025
16281   1 2 0.0 19.555177 15.255957 1.084704
16282   1 2 0.0 21.891395 16.249873 2.851500
16283   1 2 0.0 20.696726 12.212295 0.441580
16284   1 2 0.0 22.395074 9.493546 203.674154
16285   1 1 0.0 19.820428 22.280073 11.520238
16286   1 1 0.0 18.335791 17.134669 7.005039
16287   1 1 0.0 21.320924 22.194245 7.976779
16288   1 1 0.0 19.050877 20.558736 7.048144
16289   1 2 0.0 19.863973 20.456057 10.843906
16290   1 2 0.0 19.279556 20.119226 5.164013
16291   1 2 0.0 21.784643 16.746262 5.458583
16292   1 2 0.0 20.410809 20.957978 7.197605
16293   1 2 0.0 18.099232 22.239040 8.183284
16294   1 2 0.0 20.594758 22.706087 9.950080
16295   1 2 0.0 18.557971 19.020877 7.540160
16296   1 2 0.0 19.630450 15.999988 5.450858
16297   1 1 0.0 19.872112 29.040912 18.618818
16298   1 1 0.0 17.313410 24.336406 14.103619
16299   1 1 0.0 21.318846 28.633708 15.075359
16300   1 1 0.0 18.749658 27.525885 14.146724
16301   1 2 0.0 19.521516 27.250378 17.942486
16302   1 2 0.0 18.878238 27.047418 12.262593
16303   1 2 0.0 20.597498 23.213818 12.557163
16304   1 2 0.0 20.163676 27.622646 14.296185
16305   1 2 0.0 18.182523 29.371801 15.281864
16306   1 2 0.0 20.720061 29.290027 17.048660
16307   1 2 0.0 17.936891 26.130400 14.638740
16308   1 2 0.0 18.333092 22.949362 12.549438
16309   1 1 0.0 21.379704 35.631722 25.717398
16310   1 1 0.0 17.867202 31.589240 21.202199
16311   1 1 0.0 22.704675 34.922282 22.173939
16312   1 1 0.0 19.957104 34.394216 21.245304
16313   1 2 0.0 20.651444 33.958830 25.041066
16314   1 2 0.0 19.979542 33.899282 19.361173
16315   1 2 0.0 20.832165 29.785235 19.655743
16316   1 2 0.0 21.358745 34.183949 21.394765
16317   1 2 0.0 19.801137 36.318981 22.380444
16318   1 2 0.0 22.261414 35.692229 24.147240
16319   1 2 0.0 18.862679 33.206698 21.737320
16320   1 2 0.0 18.563979 30.015028 19.648018
16321   1 1 0.0 24.272341 41.742717 32.815978
16322   1 1 0.0 19.971137 38.552267 28.300779
16323   1 1 0.0 25.413273 40.764387 29.272519
16324   1 1 0.0 22.616463 40.840898 28.343884
16325   1 2 0.0 23.200648 40.266097 32.139646
16326   1 2 0.0 22.531703 40.352760 26.459753
16327   1 2 0.0 22.477613 36.151638 26.754323
16328   1 2 0.0 23.939845 40.333485 28.493345
16329   1 2 0.0 22.878993 42.754043 29.479024
16330   1 2 0.0 25.146371 41.611773 31.245820
16331   1 2 0.0 21.291819 39.917163 28.835900
16332   1 2 0.0 20.312259 36.864878 26.746598
16333   1 1 0.0 28.414062 47.086663 39.914558
16334   1 1 0.0 23.526324 44.898204 35.399359
16335   1 1 0.0 29.317327 45.885427 36.371099
16336   1 1 0.0 26.602735 46.562919 35.442464
16337   1 2 0.0 27.049308 45.875721 39.238226
16338   1 2 0.0 26.414762 46.104521 33.558333
16339   1 2 0.0 25.456502 42.013789 33.852903
16340   1 2 0.0 27.785657 45.782211 35.591925
16341   1 2 0.0 27.271424 48.374521 36.577604
16342   1 2 0.0 29.239329 46.770422 38.344400
16343   1 2 0.0 25.110136 45.946385 35.934480
16344   1 2 0.0 23.495757 43.176952 33.845178
16345   1 1 0.0 33.610193 51.412379 47.013138
16346   1 1 0.0 28.365659 50.328776 42.497939
16347   1 1 0.0 34.233335 50.044700 43.469679
16348   1 1 0.0 31.728556 51.291328 42.541044
16349   1 2 0.0 32.016527 50.524033 46.336806
16350   1 2 0.0 31.446205 50.884216 40.656913
16351   1 2 0.0 29.628816 47.096149 40.951483
16352   1 2 0.0 32.715417 50.274020 42.690505
16353   1 2 0.0 32.771974 52.916237 43.676184
16354   1 2 0.0 34.347908 50.925706 45.442980
16355   1 2 0.0 30.138158 51.010974 43.033060
16356   1 2 0.0 27.964840 48.654564 40.943758
16357   1 1 0.0 41.590406 49.282382 50.536943
16358   1 1 0.0 35.484269 49.814867 47.393681
16359   1 1 0.0 42.114714 47.835735 47.051437
16360   1 1 0.0 38.748703 49.862029 47.404238
16361   1 2 0.0 40.396357 48.827471 49.548096
16362   1 2 0.0 38.343928 49.541248 45.718296
16363   1 2 0.0 38.521163 46.362592 43.733501
16364   1 2 0.0 40.256633 48.546068 46.816027
16365   1 2 0.0 39.388899 51.248880 49.011133
16366   1 2 0.0 42.190038 48.635868 49.051742
16367   1 2 0.0 37.250875 50.006413 47.866660
16368   1 2 0.0 35.494566 48.306259 45.333214
16369   1 1 0.0 46.950105 50.716680 57.635523
16370   1 1 0.0 41.102234 52.552670 54.492261
16371   1 1 0.0 47.150304 49.191032 54.150017
16372   1 1 0.0 44.300113 51.895160 54.502818
16373   1 2 0.0 45.686073 50.529807 56.646676
16374   1 2 0.0 43.835715 51.669157 52.816876
16375   1 2 0.0 43.323709 48.527005 50.832081
16376   1 2 0.0 45.488984 50.285131 53.914607
16377   1 2 0.0 45.224164 53.111440 56.109713
16378   1 2 0.0 47.396306 49.956126 56.150322
16379   1 2 0.0 42.868605 52.358968 54.965240
16380   1 2 0.0 40.787148 51.077297 52.431794
16381   1 1 0.0 52.492969 50.962129 64.734103
16382   1 1 0.0 47.178230 54.015325 61.590841
16383   1 1 0.0 52.359649 49.429187 61.248597
16384   1 1 0.0 50.159246 52.684048 61.601398
16385   1 2 0.0 51.218368 51.052076 63.745256
16386   1 2 0.0 49.657053 52.563445 59.915456
16387   1 2 0.0 48.479871 49.605488 57.930661
16388   1 2 0.0 50.973177 50.855627 61.013187
16389   1 2 0.0 51.323717 53.672590 63.208293
16390   1 2 0.0 52.764765 50.123281 63.248902
16391   1 2 0.0 48.861342 53.445481 62.063820
16392   1 2 0.0 46.552571 52.642534 59.530374
16393   1 1 0.0 57.958467 50.007190 71.832683
16394   1 1 0.0 53.426669 54.134084 68.689421
16395   1 1 0.0 57.497896 48.539008 68.347177
16396   1 1 0.0 56.050705 52.191615 68.699978
16397   1 2 0.0 56.733207 50.369730 70.843836
16398   1 2 0.0 55.534321 52.182081 67.014036
16399   1 2 0.0 53.747295 49.547350 65.029241
16400   1 2 0.0 56.451439 50.230743 68.111767
16401   1 2 0.0 57.400863 52.905953 70.306873
16402   1 2 0.0 58.043085 49.129478 70.347482
16403   1 2 0.0 54.947410 53.214882 69.162400
16404   1 2 0.0 52.519845 52.928400 66.628954
16405   1 1 0.0 63.089707 47.896749 78.931263
16406   1 1 0.0 59.553856 52.903366 75.788001
16407   1 1 0.0 62.323532 46.562335 75.445757
16408   1 1 0.0 61.697575 50.441004 75.798558
16409   1 2 0.0 61.971378 48.514841 77.942416
16410   1 2 0.0 61.191272 50.542988 74.112616
16411   1 2 0.0 58.878397 48.355324 72.127821
16412   1 2 0.0 61.666277 48.439848 75.210347
16413   1 2 0.0 63.169960 50.847563 77.405453
16414   1 2 0.0 62.983168 47.021427 77.446062
16415   1 2 0.0 60.840748 51.678009 76.260980
16416   1 2 0.0 58.408490 51.921458 73.727534
16417   1 1 0.0 67.645505 44.730002 86.029843
16418   1 1 0.0 65.271796 50.381016 82.886581
16419   1 1 0.0 66.609738 43.592078 82.544337
16420   1 1 0.0 66.834438 47.514501 82.897138
16421   1 2 0.0 66.686672 45.574595 85.040996
16422   1 2 0.0 66.362013 47.723208 81.211196
16423   1 2 0.0 63.632000 46.085437 79.226401
16424   1 2 0.0 66.372578 45.567120 82.308927
16425   1 2 0.0 68.359842 47.594172 84.504033
16426   1 2 0.0 67.352817 43.898213 84.544642
16427   1 2 0.0 66.264351 48.907102 83.359560
16428   1 2 0.0 63.941724 49.669039 80.826114
16429   1 1 0.0 71.411726 40.655795 93.128423
16430   1 1 0.0 70.311731 46.685593 89.985161
16431   1 1 0.0 70.155052 39.767846 89.642917
16432   1 1 0.0 71.219846 43.549659 89.995718
16433   1 2 0.0 70.657457 41.687190 92.139576
16434   1 2 0.0 70.803506 43.855280 88.309776
16435   1 2 0.0 67.784673 42.844381 86.324981
16436   1 2 0.0 70.349134 41.747586 89.407507
16437   1 2 0.0 72.726572 43.298696 91.602613
16438   1 2 0.0 70.946647 39.906636 91.643222
16439   1 2 0.0 70.963296 45.032399 90.458140
16440   1 2 0.0 68.859469 46.277011 87.924694
16441   1 1 0.0 74.211348 35.865628 100.227003
16442   1 1 0.0 74.436768 41.990792 97.083741
16443   1 1 0.0 72.792833 35.269390 96.741497
16444   1 1 0.0 74.647673 38.732837 97.094298
16445   1 2 0.0 73.697095 37.035347 99.238156
16446   1 2 0.0 74.306986 39.121006 95.408356
16447   1 2 0.0 71.141228 38.784495 93.423561
16448   1 2 0.0 73.409035 37.160774 96.506087
16449   1 2 0.0 76.064901 38.163037 98.701193
16450   1 2 0.0 73.595737 35.234311 98.741802
16451   1 2 0.0 74.716718 40.236023 97.556720
16452   1 2 0.0 72.930577 41.904809 95.023274
16453   1 1 0.0 75.912779 30.584651 107.325583
16454   1 1 0.0 77.453021 36.517282 104.182321
16455   1 1 0.0 74.399098 30.308150 103.840077
16456   1 1 0.0 76.956802 33.290438 104.192878
16457   1 2 0.0 75.662714 31.837714 106.336736
16458   1 2 0.0 76.707781 33.742911 102.506936
16459   1 2 0.0 73.543897 34.096605 100.522141
16460   1 2 0.0 75.408457 32.022277 103.604667
16461   1 2 0.0 78.217918 32.428583 105.799773
16462   1 2 0.0 75.175572 30.100850 105.840382
16463   1 2 0.0 77.348197 34.743416 104.655300
16464   1 2 0.0 75.963696 36.757940 102.121854
16465   1 1 0.0 76.436049 25.061086 114.424163
16466   1 1 0.0 79.218715 30.522334 111.280901
16467   1 1 0.0 74.898349 25.117317 110.938657
16468   1 1 0.0 78.038698 27.478272 111.291458
16469   1 2 0.0 76.461926 26.338595 113.435316
16470   1 2 0.0 77.893047 27.973781 109.605516
16471   1 2 0.0 74.879748 29.001054 107.620721
16472   1 2 0.0 76.253421 26.573619 110.703247
16473   1 2 0.0 79.084424 26.364871 112.898353
16474   1 2 0.0 75.611897 24.747540 112.938962
16475   1 2 0.0 78.734045 28.812748 111.753880
16476   1 2 0.0 77.816259 31.078320 109.220434
16477   1 1 0.0 75.756561 19.554555 121.522743
16478   1 1 0.0 79.650860 24.287725 118.379481
16479   1 1 0.0 74.267118 19.940876 118.037237
16480   1 1 0.0 77.842507 21.569525 118.390038
16481   1 2 0.0 76.057163 20.796464 120.533896
16482   1 2 0.0 77.807073 22.084780 116.704096
16483   1 2 0.0 75.085992 23.737349 114.719301
16484   1 2 0.0 75.904213 21.070903 117.801827
16485   1 2 0.0 78.623693 20.256911 119.996933
16486   1 2 0.0 74.884201 19.426003 120.037542
16487   1 2 0.0 78.809123 22.722775 118.852460
16488   1 2 0.0 78.401192 25.132908 116.319014
16489   1 1 0.0 73.906255 14.323882 128.621323
16490   1 1 0.0 78.729142 18.106501 125.478061
16491   1 1 0.0 72.535077 15.022134 125.135817
16492   1 1 0.0 76.377451 15.841926 125.488618
16493   1 2 0.0 74.467453 15.471817 127.632476
16494   1 2 0.0 76.453900 16.352708 123.802676
16495   1 2 0.0 74.152936 18.552897 121.817881
16496   1 2 0.0 74.377245 15.772770 124.900407
16497   1 2 0.0 76.857379 14.391796 127.095513
16498   1 2 0.0 73.026690 14.386364 127.136122
16499   1 2 0.0 77.569904 16.759744 125.951040
16500   1 2 0.0 77.691000 19.201154 123.417594
16501   1 1 0.0 70.972098 9.614921 135.719903
16502   1 1 0.0 76.496886 12.269197 132.576641
16503   1 1 0.0 69.783635 10.592285 132.234397
16504   1 1 0.0 73.712393 10.564688 132.587198
16505   1 2 0.0 71.767515 10.614927 134.731056
16506   1 2 0.0 73.897131 11.046989 130.901256
16507   1 2 0.0 72.124436 13.691383 128.916461
16508   1 2 0.0 71.744290 10.928249 131.998987
16509   1 2 0.0 73.868504 9.045202 134.194093
16510   1 2 0.0 70.126671 9.865503 134.234702
16511   1 2 0.0 75.074633 11.203934 133.049620
16512   1 2 0.0 75.719065 13.561869 130.516174
16513   1 1 0.0 67.092006 5.649008 142.818483
16514   1 1 0.0 73.059013 7.050182 139.675221
16515   1 1 0.0 66.142118 6.859544 139.332977
16516   1 1 0.0 69.972597 5.985855 139.685778
16517   1 2 0.0 68.084254 6.454081 141.829636
16518   1 2 0.0 70.256941 6.417007 137.999836
16519   1 2 0.0 69.095836 9.381312 136.015041
16520   1 2 0.0 68.129103 6.765046 139.097567
16521   1 2 0.0 69.797554 4.468434 141.292673
16522   1 2 0.0 66.320454 6.075910 141.333282
16523   1 2 0.0 71.440595 6.316484 140.148200
16524   1 2 0.0 72.578073 8.480113 137.614754
16525   1 1 0.0 62.448353 2.612552 149.917063
16526   1 1 0.0 68.577113 2.694765 146.773801
16527   1 1 0.0 61.781688 3.999362 146.431557
16528   1 1 0.0 65.333844 2.320647 146.784358
16529   1 2 0.0 63.590794 3.184851 148.928216
16530   1 2 0.0 65.704429 2.680383 145.098416
16531   1 2 0.0 65.209490 5.825268 143.113621
16532   1 2 0.0 63.701609 3.478842 146.196147
16533   1 2 0.0 64.835875 0.876613 148.391253
16534   1 2 0.0 61.786940 3.195709 148.431862
16535   1 2 0.0 66.838601 2.327117 147.246780
16536   1 2 0.0 68.415660 4.194744 144.713334
16537   1 1 0.0 57.259403 0.648274 157.015643
16538   1 1 0.0 63.261847 -0.592339 153.872381
16539   1 1 0.0 56.907297 2.146174 153.530137
16540   1 1 0.0 60.014169 -0.258662 153.882938
16541   1 2 0.0 58.498340 0.960901 156.026796
16542   1 2 0.0 60.453577 0.012749 152.196996
16543   1 2 0.0 60.648067 3.190396 150.212201
16544   1 2 0.0 58.669912 1.224099 153.294727
16545   1 2 0.0 59.216680 -1.561435 155.489833
16546   1 2 0.0 56.739219 1.360276 155.530442
16547   1 2 0.0 61.484956 -0.576656 154.345360
16548   1 2 0.0 63.427470 0.907186 151.811914
16549   1 1 0.0 51.769053 -0.151498 164.114223
16550   1 1 0.0 57.363050 -2.656624 160.970961
16551   1 1 0.0 51.748054 1.387086 160.628717
16552   1 1 0.0 54.263611 -1.630838 160.981518
16553   1 2 0.0 53.046251 -0.113239 163.125376
16554   1 2 0.0 54.751188 -1.460508 159.295576
16555   1 2 0.0 55.625966 1.600543 157.310781
16556   1 2 0.0 53.270517 0.106795 160.393307
16557   1 2 0.0 53.204086 -2.731116 162.588413
16558   1 2 0.0 51.414547 0.655883 162.629022
16559   1 2 0.0 55.631298 -2.258348 161.443940
16560   1 2 0.0 57.847963 -1.228036 158.910494
16561   1 1 0.0 46.235363 0.250826 171.212803
16562   1 1 0.0 51.157979 -3.401065 168.069541
16563   1 1 0.0 46.546460 1.757777 167.727297
16564   1 1 0.0 48.352464 -1.731384 168.080098
16565   1 2 0.0 47.490791 0.012919 170.223956
16566   1 2 0.0 48.865291 -1.670141 166.394156
16567   1 2 0.0 50.379240 1.130435 164.409361
16568   1 2 0.0 47.757210 0.179448 167.491887
16569   1 2 0.0 47.080702 -2.577451 169.686993
16570   1 2 0.0 46.063199 1.115637 169.727602
16571   1 2 0.0 49.552764 -2.638915 168.542520
16572   1 2 0.0 51.939391 -2.110562 166.009074
16573   1 1 0.0 40.918434 1.836337 178.311383
16574   1 1 0.0 44.938292 -2.790671 175.168121
16575   1 1 0.0 41.547003 3.240824 174.825877
16576   1 1 0.0 42.558566 -0.555574 175.178678
16577   1 2 0.0 42.093083 1.333446 177.322536
16578   1 2 0.0 43.072541 -0.606297 173.492736
16579   1 2 0.0 45.154500 1.802170 171.507941
16580   1 2 0.0 42.389131 1.438642 174.590467
16581   1 2 0.0 41.134345 -1.107663 176.785573
16582   1 2 0.0 40.936703 2.717928 176.826182
16583   1 2 0.0 43.535063 -1.700470 175.641100
16584   1 2 0.0 45.979474 -1.698909 173.107654
16585   1 1 0.0 36.068175 4.530510 185.409963
16586   1 1 0.0 38.996331 -0.854131 182.266701
16587   1 1 0.0 36.984672 5.766518 181.924457
16588   1 1 0.0 37.154248 1.841325 182.277258
16589   1 2 0.0 37.106833 3.786274 184.421116
16590   1 2 0.0 37.645212 1.681020 180.591316
16591   1 2 0.0 40.197324 3.584173 178.606521
16592   1 2 0.0 37.418596 3.825192 181.689047
16593   1 2 0.0 35.644510 1.609165 183.884153
16594   1 2 0.0 36.276019 5.387446 183.924762
16595   1 2 0.0 37.861044 0.512877 182.739680
16596   1 2 0.0 40.248344 -0.012426 180.206234
16597   1 1 0.0 31.912562 8.206712 192.508543
16598   1 1 0.0 33.611384 2.317531 189.365281
16599   1 1 0.0 33.073910 9.216146 189.023037
16600   1 1 0.0 32.393528 5.346653 189.375838
16601   1 2 0.0 32.766410 7.256111 191.519696
16602   1 2 0.0 32.838404 5.084301 187.689896
16603   1 2 0.0 35.740712 6.392686 185.705101
16604   1 2 0.0 33.079234 7.226922 188.787627
16605   1 2 0.0 30.869235 5.445333 190.982733
16606   1 2 0.0 32.300211 8.998714 191.023342
16607   1 2 0.0 32.797401 3.897094 189.838260
16608   1 2 0.0 35.015381 2.869616 187.304814
16609   1 1 0.0 28.646921 12.692152 199.607123
16610   1 1 0.0 29.036560 6.575238 196.463861
16611   1 1 0.0 29.998532 13.427565 196.121617
16612   1 1 0.0 28.500173 9.795649 196.474418
16613   1 2 0.0 29.275825 11.579867 198.618276
16614   1 2 0.0 28.878050 9.443581 194.788476
16615   1 2 0.0 31.994139 10.095701 192.803681
16616   1 2 0.0 29.575006 11.483943 195.886207
16617   1 2 0.0 27.032971 10.220531 198.081313
16618   1 2 0.0 29.196155 13.381993 198.121922
16619   1 2 0.0 28.582140 8.293112 196.936840
16620   1 2 0.0 30.526548 6.811754 194.403394
16621   1 1 0.0 26.424746 17.776001 1.383827
16622   1 1 0.0 25.486888 11.718867 203.562441
16623   1 1 0.0 27.903091 18.202826 203.220197
16624   1 1 0.0 25.657181 14.979197 203.572998
16625   1 2 0.0 26.799146 16.554313 0.394980
16626   1 2 0.0 25.950299 14.553962 201.887056
16627   1 2 0.0 29.133703 14.519165 199.902261
16628   1 2 0.0 27.070622 16.396163 202.984787
16629   1 2 0.0 24.316033 15.710312 205.179893
16630   1 2 0.0 27.109750 18.331257 205.220502
16631   1 2 0.0 25.413390 13.494307 204.035420
16632   1 2 0.0 26.992834 11.628696 201.501974
16633   1 1 0.0 25.350486 23.219304 8.482407
16634   1 1 0.0 23.129212 17.506652 5.339145
16635   1 1 0.0 26.886079 23.317480 4.996901
16636   1 1 0.0 23.998182 20.653658 5.349702
16637   1 2 0.0 25.452784 21.945635 7.493560
16638   1 2 0.0 24.192763 20.175242 3.663760
16639   1 2 0.0 27.293852 19.455164 1.678965
16640   1 2 0.0 25.683795 21.732692 4.761491
16641   1 2 0.0 22.846125 21.656639 6.956597
16642   1 2 0.0 26.139061 23.613876 6.997206
16643   1 2 0.0 23.440091 19.256207 5.812124
16644   1 2 0.0 24.580332 17.094033 3.278678
16645   1 1 0.0 25.474633 28.766211 15.580987
16646   1 1 0.0 22.074350 23.666551 12.437725
16647   1 1 0.0 26.995296 28.531122 12.095481
16648   1 1 0.0 23.601152 26.552314 12.448282
16649   1 2 0.0 25.300021 27.500427 14.592140
16650   1 2 0.0 23.688051 26.043205 10.762340
16651   1 2 0.0 26.561066 24.671691 8.777545
16652   1 2 0.0 25.479708 27.242700 11.860071
16653   1 2 0.0 22.692336 27.780019 14.055177
16654   1 2 0.0 26.329715 28.981553 14.095786
16655   1 2 0.0 22.754993 25.307987 12.910704
16656   1 2 0.0 23.402438 22.950878 10.377258
16657   1 1 0.0 26.791353 34.156000 22.679567
16658   1 1 0.0 22.371883 29.909031 19.536305
16659   1 1 0.0 28.225611 33.598697 19.194061
16660   1 1 0.0 24.484754 32.397913 19.546862
16661   1 2 0.0 26.348038 32.957597 21.690720
16662   1 2 0.0 24.459885 31.882040 17.860920
16663   1 2 0.0 26.969787 29.923556 15.876125
16664   1 2 0.0 26.467956 32.667200 18.958651
16665   1 2 0.0 23.861896 33.792637 21.153757
16666   1 2 0.0 27.672751 34.181991 21.194366
16667   1 2 0.0 23.390299 31.365197 20.009284
16668   1 2 0.0 23.514514 28.923944 17.475838
16669   1 1 0.0 29.238755 39.135338 29.778147
16670   1 1 0.0 24.007827 35.940680 26.634885
16671   1 1 0.0 30.519195 38.282016 26.292641
16672   1 1 0.0 26.607455 37.915695 26.645442
16673   1 2 0.0 28.547575 38.060644 28.789300
16674   1 2 0.0 26.471988 37.417306 24.959500
16675   1 2 0.0 28.500804 34.963905 22.974705
16676   1 2 0.0 28.602087 37.751227 26.057231
16677   1 2 0.0 26.299832 39.411882 28.252337
16678   1 2 0.0 30.105041 38.970755 28.292946
16679   1 2 0.0 25.316147 37.143130 27.107864
16680   1 2 0.0 24.911295 34.732479 24.574418
16681   1 1 0.0 32.701806 43.470181 36.876727
16682   1 1 0.0 26.905287 41.477991 33.733465
16683   1 1 0.0 33.768242 42.360948 33.391221
16684   1 1 0.0 29.869483 42.846309 33.744022
16685   1 2 0.0 31.795247 42.569709 35.887880
16686   1 2 0.0 29.629785 42.388829 32.058080
16687   1 2 0.0 31.082154 39.555829 30.073285
16688   1 2 0.0 31.781792 42.255815 33.155811
16689   1 2 0.0 29.891553 44.373633 35.350917
16690   1 2 0.0 33.512261 43.122761 35.391526
16691   1 2 0.0 28.442016 42.370208 34.206444
16692   1 2 0.0 27.527126 40.103465 31.672998
16693   1 1 0.0 37.017732 46.956779 43.975307
16694   1 1 0.0 30.928075 46.260696 40.832045
16695   1 1 0.0 37.820039 45.643772 40.489801
16696   1 1 0.0 34.117513 46.958002 40.842602
16697   1 2 0.0 35.938405 46.272855 42.986460
16698   1 2 0.0 33.784851 46.562934 39.156660
16699   1 2 0.0 34.592509 43.483493 37.171865
16700   1 2 0.0 35.857615 45.969237 40.254391
16701   1 2 0.0 34.468239 48.444675 42.449497
16702   1 2 0.0 37.734263 46.442852 42.490106
16703   1 2 0.0 32.620983 46.800743 41.305024
16704   1 2 0.0 31.239057 44.784452 38.771578
16705   1 1 0.0 39.110356 62.993686 55.141505
16706   1 1 0.0 35.830056 62.496077 47.513726
16707   1 1 0.0 38.374837 61.954355 52.187089
16708   1 1 0.0 38.705594 63.121065 48.530608
16709   1 2 0.0 36.752996 62.356906 54.709548
16710   1 2 0.0 38.214475 62.927877 46.481326
16711   1 2 0.0 31.596662 59.469704 50.155854
16712   1 2 0.0 37.728622 62.218566 50.377780
16713   1 2 0.0 41.738898 64.242450 48.436124
16714   1 2 0.0 39.330606 62.629203 53.844703
16715   1 2 0.0 37.439058 62.934776 48.571626
16716   1 2 0.0 33.276789 61.113262 47.310368
16717   1 1 0.0 47.483451 64.640260 62.240085
16718   1 1 0.0 44.172996 64.861327 54.612306
16719   1 1 0.0 46.541217 63.783876 59.285669
16720   1 1 0.0 47.115655 64.851881 55.629188
16721   1 2 0.0 45.044251 64.526512 61.808128
16722   1 2 0.0 46.594442 64.769081 53.579906
16723   1 2 0.0 39.386838 62.818476 57.254434
16724   1 2 0.0 45.967133 64.181152 57.476360
16725   1 2 0.0 50.319357 65.293162 55.534704
16726   1 2 0.0 47.619970 64.236874 60.943283
16727   1 2 0.0 45.838735 64.942938 55.670206
16728   1 2 0.0 41.381706 64.061301 54.408948
16729   1 1 0.0 56.014643 64.443536 69.338665
16730   1 1 0.0 52.829634 65.372890 61.710886
16731   1 1 0.0 54.909981 63.810352 66.384249
16732   1 1 0.0 55.701099 64.729453 62.727768
16733   1 2 0.0 53.608252 64.858167 68.906708
16734   1 2 0.0 55.174290 64.760932 60.678486
16735   1 2 0.0 47.715673 64.409578 64.353014
16736   1 2 0.0 54.435012 64.322021 64.574940
16737   1 2 0.0 58.924617 64.469889 62.633284
16738   1 2 0.0 56.061014 64.020207 68.041863
16739   1 2 0.0 54.473814 65.093576 62.768786
16740   1 2 0.0 49.931517 65.193254 61.507528
16741   1 1 0.0 64.302940 62.412761 76.437245
16742   1 1 0.0 61.393081 64.006718 68.809466
16743   1 1 0.0 63.087774 62.032539 73.482829
16744   1 1 0.0 64.058388 62.759534 69.826348
16745   1 2 0.0 62.042466 63.336282 76.005288
16746   1 2 0.0 63.550744 62.903814 67.777066
16747   1 2 0.0 56.191690 64.168226 71.451594
16748   1 2 0.0 62.734243 62.634549 71.673520
16749   1 2 0.0 67.150206 61.811326 69.731864
16750   1 2 0.0 64.256985 61.989386 75.140443
16751   1 2 0.0 62.938422 63.379609 69.867366
16752   1 2 0.0 58.524359 64.455918 68.606108
16753   1 1 0.0 71.958771 58.643386 83.535825
16754   1 1 0.0 69.460834 60.827028 75.908046
16755   1 1 0.0 70.690216 58.533997 80.581409
16756   1 1 0.0 71.794704 59.034717 76.924928
16757   1 2 0.0 69.950462 60.032390 83.103868
16758   1 2 0.0 71.330086 59.285015 74.875646
16759   1 2 0.0 64.416491 62.105763 78.550174
16760   1 2 0.0 70.474742 59.198054 78.772100
16761   1 2 0.0 74.609498 57.442433 76.830444
16762   1 2 0.0 71.822648 58.239866 82.239023
16763   1 2 0.0 70.834700 59.881599 76.965946
16764   1 2 0.0 66.756344 61.883948 75.704688
16765   1 1 0.0 78.622290 53.312584 90.634405
16766   1 1 0.0 76.653684 55.983272 83.006626
16767   1 1 0.0 77.359972 53.479170 87.679989
16768   1 1 0.0 78.546419 53.730079 84.023508
16769   1 2 0.0 76.960542 55.101782 90.202448
16770   1 2 0.0 78.146666 54.074631 81.974226
16771   1 2 0.0 72.003488 58.319131 85.648754
16772   1 2 0.0 77.292681 54.174060 85.870680
16773   1 2 0.0 80.951887 51.568560 83.929024
16774   1 2 0.0 78.402398 52.947885 89.337603
16775   1 2 0.0 77.791500 54.763961 84.064526
16776   1 2 0.0 74.240544 57.598235 82.803268
16777   1 1 0.0 83.980291 46.670917 97.732985
16778   1 1 0.0 82.633547 49.703121 90.105206
16779   1 1 0.0 82.783543 47.105647 94.778569
16780   1 1 0.0 83.996184 47.094952 91.122088
16781   1 2 0.0 82.743212 48.776213 97.301028
16782   1 2 0.0 83.680084 47.517562 89.072806
16783   1 2 0.0 78.596071 52.986312 92.747334
16784   1 2 0.0 82.867599 47.798709 92.969260
16785   1 2 0.0 85.879261 44.465797 91.027604
16786   1 2 0.0 83.686966 46.362181 96.436183
16787   1 2 0.0 83.481833 48.267239 91.163106
16788   1 2 0.0 80.625183 51.800219 89.901848
16789   1 1 0.0 87.780936 39.030561 104.831565
16790   1 1 0.0 87.119354 42.281760 97.203786
16791   1 1 0.0 86.706007 39.713002 101.877149
16792   1 1 0.0 87.887844 39.441205 98.220668
16793   1 2 0.0 87.026670 41.353000 104.399608
16794   1 2 0.0 87.670256 39.922011 96.171386
16795   1 2 0.0 83.884370 46.357963 99.845914
16796   1 2 0.0 86.937459 40.371661 100.067840
16797   1 2 0.0 89.160021 36.467991 98.126184
16798   1 2 0.0 87.427964 38.792300 103.534763
16799   1 2 0.0 87.638237 40.696798 98.261686
16800   1 2 0.0 85.610163 44.762423 97.000428
16801   1 1 0.0 89.845581 30.750636 111.930145
16802   1 1 0.0 89.900258 34.068013 104.302366
16803   1 1 0.0 88.942997 31.648711 108.975729
16804   1 1 0.0 90.038481 31.128588 105.319248
16805   1 2 0.0 89.609583 33.181056 111.498188
16806   1 2 0.0 89.929631 31.644990 103.269966
16807   1 2 0.0 87.619819 38.745636 106.944494
16808   1 2 0.0 89.310966 32.242007 107.166420
16809   1 2 0.0 90.639962 27.951064 105.224764
16810   1 2 0.0 89.449554 30.594048 110.633343
16811   1 2 0.0 90.065350 32.408468 105.360266
16812   1 2 0.0 88.961178 36.815644 104.099008
16813   1 1 0.0 90.077184 22.220320 119.028725
16814   1 1 0.0 90.845550 25.447950 111.400946
16815   1 1 0.0 89.389369 23.291818 116.074309
16816   1 1 0.0 90.347008 22.547815 112.417828
16817   1 2 0.0 90.370545 24.644485 118.596768
16818   1 2 0.0 90.352013 23.075540 110.368546
16819   1 2 0.0 89.626843 30.507131 114.043074
16820   1 2 0.0 89.876559 23.791864 114.265000
16821   1 2 0.0 90.249521 19.315334 112.323344
16822   1 2 0.0 89.656715 22.152765 117.731923
16823   1 2 0.0 90.649090 23.791826 112.458846
16824   1 2 0.0 90.520718 28.333402 111.197588
16825   1 1 0.0 88.464858 13.840563 126.127305
16826   1 1 0.0 89.910797 16.826738 118.499526
16827   1 1 0.0 88.024141 15.035119 123.172889
16828   1 1 0.0 88.798924 14.102208 119.516408
16829   1 2 0.0 89.273790 16.144530 125.695348
16830   1 2 0.0 88.917549 14.616452 117.467126
16831   1 2 0.0 89.811105 22.029681 121.141654
16832   1 2 0.0 88.607653 15.418413 121.363580
16833   1 2 0.0 88.007052 10.966705 119.421924
16834   1 2 0.0 88.039711 13.865216 124.830503
16835   1 2 0.0 89.362020 15.251876 119.557426
16836   1 2 0.0 90.215483 19.714386 118.296168
16837   1 1 0.0 85.084388 6.005236 133.225885
16838   1 1 0.0 87.139936 8.609598 125.598106
16839   1 1 0.0 84.911483 7.266704 130.271469
16840   1 1 0.0 85.466993 6.188733 126.614988
16841   1 2 0.0 86.370868 8.080713 132.793928
16842   1 2 0.0 85.693662 6.665325 124.565706
16843   1 2 0.0 88.163946 13.711750 128.240234
16844   1 2 0.0 85.563891 7.515228 128.462160
16845   1 2 0.0 84.017956 3.297586 126.520504
16846   1 2 0.0 84.674546 6.120939 131.929083
16847   1 2 0.0 86.264637 7.190022 126.656006
16848   1 2 0.0 88.059819 11.363715 125.394748
16849   1 1 0.0 80.094664 -0.917378 140.324465
16850   1 1 0.0 82.663206 1.182758 132.696686
16851   1 1 0.0 80.197699 0.351709 137.370049
16852   1 1 0.0 80.507825 -0.820654 133.713568
16853   1 2 0.0 81.798224 0.832055 139.892508
16854   1 2 0.0 80.831884 -0.404115 131.664286
16855   1 2 0.0 84.762785 5.944305 135.338814
16856   1 2 0.0 80.888337 0.453783 135.560740
16857   1 2 0.0 78.469732 -3.331552 133.619084
16858   1 2 0.0 79.719390 -0.716063 139.027663
16859   1 2 0.0 81.502525 -0.014808 133.754586
16860   1 2 0.0 84.155048 3.673893 132.493328
16861   1 1 0.0 73.730217 -6.601897 147.423045
16862   1 1 0.0 76.691025 -5.104699 139.795266
16863   1 1 0.0 74.104349 -5.384842 144.468629
16864   1 1 0.0 74.154515 -6.596492 140.812148
16865   1 2 0.0 75.770787 -5.260735 146.991088
16866   1 2 0.0 74.560733 -6.259585 138.762866
16867   1 2 0.0 79.767487 -0.907564 142.437394
16868   1 2 0.0 74.800756 -5.434015 142.659320
16869   1 2 0.0 71.623162 -8.609123 140.717664
16870   1 2 0.0 73.407152 -6.324433 146.126243
16871   1 2 0.0 75.299517 -6.023965 140.853166
16872   1 2 0.0 78.684705 -2.993636 139.591908
16873   1 1 0.0 66.290196 -10.781132 154.521625
16874   1 1 0.0 69.504102 -9.957244 146.893846
16875   1 1 0.0 66.917839 -9.673314 151.567209
16876   1 1 0.0 66.705687 -10.867300 147.910728
16877   1 2 0.0 68.571861 -9.911281 154.089668
16878   1 2 0.0 67.174969 -10.625860 145.861446
16879   1 2 0.0 73.412845 -6.521799 149.535974
16880   1 2 0.0 67.587282 -9.871424 149.757900
16881   1 2 0.0 63.800054 -12.287065 147.816244
16882   1 2 0.0 66.034523 -10.440560 153.224823
16883   1 2 0.0 67.947173 -10.555004 147.951746
16884   1 2 0.0 71.905912 -8.325480 146.690488
16885   1 1 0.0 58.124301 -13.258648 161.620205
16886   1 1 0.0 61.440243 -13.146796 153.992426
16887   1 1 0.0 58.975955 -12.312137 158.665789
16888   1 1 0.0 58.511456 -13.432339 155.009308
16889   1 2 0.0 60.539817 -12.900992 161.188248
16890   1 2 0.0 59.021745 -13.297715 152.960026
16891   1 2 0.0 65.997545 -10.634515 156.634554
16892   1 2 0.0 59.586967 -12.649872 156.856480
16893   1 2 0.0 55.368116 -14.192505 154.914824
16894   1 2 0.0 57.948038 -12.870976 160.323403
16895   1 2 0.0 59.791072 -13.394952 155.050326
16896   1 2 0.0 64.137291 -12.071027 153.789068
16897   1 1 0.0 49.616352 -13.917994 168.718785
16898   1 1 0.0 52.878471 -14.523435 161.091006
16899   1 1 0.0 50.651987 -13.177279 165.764369
16900   1 1 0.0 49.956974 -14.171045 162.107888
16901   1 2 0.0 52.052184 -14.089345 168.286828
16902   1 2 0.0 50.484285 -14.149564 160.058606
16903   1 2 0.0 57.870127 -13.052403 163.733134
16904   1 2 0.0 51.175849 -13.638765 163.955060
16905   1 2 0.0 46.723673 -14.235881 162.013404
16906   1 2 0.0 49.527784 -13.501445 167.421983
16907   1 2 0.0 51.214575 -14.410324 162.148906
16908   1 2 0.0 55.743989 -14.054226 160.887648
16909   1 1 0.0 41.166247 -12.728180 175.817365
16910   1 1 0.0 44.221215 -14.022456 168.189586
16911   1 1 0.0 42.337185 -12.228076 172.862949
16912   1 1 0.0 41.444326 -13.048695 169.206468
16913   1 2 0.0 43.507903 -13.420483 175.385408
16914   1 2 0.0 41.963874 -13.141367 167.157186
16915   1 2 0.0 49.412602 -13.661816 170.831714
16916   1 2 0.0 42.749275 -12.791621 171.053640
16917   1 2 0.0 38.273038 -12.415155 169.111984
16918   1 2 0.0 41.169537 -12.302331 174.520563
16919   1 2 0.0 42.620801 -13.553394 169.247486
16920   1 2 0.0 47.120515 -14.181862 167.986228
16921   1 1 0.0 33.171165 -9.745129 182.915945
16922   1 1 0.0 35.875390 -11.667407 175.288166
16923   1 1 0.0 34.422368 -9.509144 179.961529
16924   1 1 0.0 33.373629 -10.118045 176.305048
16925   1 2 0.0 35.308581 -10.925845 182.483988
16926   1 2 0.0 33.860995 -10.320514 174.255766
16927   1 2 0.0 41.022498 -12.434109 177.930294
16928   1 2 0.0 34.703316 -10.148260 178.152220
16929   1 2 0.0 30.413415 -8.815905 176.210564
16930   1 2 0.0 33.266158 -9.329998 181.619143
16931   1 2 0.0 34.413681 -10.864441 176.346066
16932   1 2 0.0 38.672196 -12.447934 175.084808
16933   1 1 0.0 26.006897 -5.109055 190.014525
16934   1 1 0.0 28.233272 -7.568981 182.386746
16935   1 1 0.0 27.279555 -5.148279 187.060109
16936   1 1 0.0 26.124231 -5.516842 183.403628
16937   1 2 0.0 27.839608 -6.722686 189.582568
16938   1 2 0.0 26.556506 -5.819592 181.354346
16939   1 2 0.0 33.094173 -9.426989 185.028874
16940   1 2 0.0 27.416156 -5.832926 185.250800
16941   1 2 0.0 23.514227 -3.607308 183.309144
16942   1 2 0.0 26.189128 -4.724153 188.717723
16943   1 2 0.0 26.978974 -6.469853 183.444646
16944   1 2 0.0 30.796127 -8.933942 182.183388
16945   1 1 0.0 20.010183 0.962136 197.113105
16946   1 1 0.0 21.654063 -1.919815 189.485326
16947   1 1 0.0 21.244478 0.649545 194.158689
16948   1 1 0.0 20.036872 0.538644 190.502208
16949   1 2 0.0 21.452047 -1.008566 196.681148
16950   1 2 0.0 20.393738 0.149843 188.452926
16951   1 2 0.0 26.000281 -4.781797 192.127454
16952   1 2 0.0 21.230311 -0.048452 192.349380
16953   1 2 0.0 17.899757 2.965818 190.407724
16954   1 2 0.0 20.271087 1.298717 195.816303
16955   1 2 0.0 20.666131 -0.576188 190.543226
16956   1 2 0.0 23.862505 -3.805055 189.281968
16957   1 1 0.0 15.462886 8.183079 204.211685
16958   1 1 0.0 16.447004 5.014563 196.583906
16959   1 1 0.0 16.600803 7.611814 201.257269
16960   1 1 0.0 15.397675 7.763787 197.600788
16961   1 2 0.0 16.446131 5.947936 203.779728
16962   1 2 0.0 15.662358 7.307211 195.551506
16963   1 2 0.0 20.074255 1.283128 199.226034
16964   1 2 0.0 16.436534 6.933274 199.447960
16965   1 2 0.0 13.833899 10.594519 197.506304
16966   1 2 0.0 15.790200 8.455519 202.914883
16967   1 2 0.0 15.771873 6.539536 197.641806
16968   1 2 0.0 18.197231 2.697657 196.380548
16969   1 1 0.0 12.578742 16.214370 5.988389
16970   1 1 0.0 12.856841 12.908218 203.682486
16971   1 1 0.0 13.566795 15.411283 3.033973
16972   1 1 0.0 12.424696 15.818987 204.699368
16973   1 2 0.0 13.057153 13.819843 5.556432
16974   1 2 0.0 12.584756 15.316096 202.650086
16975   1 2 0.0 15.594634 8.482718 1.002738
16976   1 2 0.0 13.260145 14.784094 1.224664
16977   1 2 0.0 11.507761 18.920224 204.604884
16978   1 2 0.0 12.957081 16.409864 4.691587
16979   1 2 0.0 12.526245 14.542859 204.740386
16980   1 2 0.0 14.066587 10.268547 203.479128
16981   1 1 0.0 11.493314 24.678517 13.086969
16982   1 1 0.0 11.052322 21.390127 5.459190
16983   1 1 0.0 12.285061 23.681354 10.132553
16984   1 1 0.0 11.257673 24.325626 6.476072
16985   1 2 0.0 11.444404 22.237155 12.655012
16986   1 2 0.0 11.305587 23.800057 4.426790
16987   1 2 0.0 12.771973 16.478573 8.101318
16988   1 2 0.0 11.850444 23.134995 8.323244
16989   1 2 0.0 11.030678 27.551601 6.381588
16990   1 2 0.0 11.904894 24.787875 11.790167
16991   1 2 0.0 11.081799 23.057603 6.517090
16992   1 2 0.0 11.664726 18.551763 5.255832
16993   1 1 0.0 12.257619 33.177679 20.185549
16994   1 1 0.0 11.118265 30.061615 12.557770
16995   1 1 0.0 12.815847 32.033311 17.231133
16996   1 1 0.0 11.951460 32.883868 13.574652
16997   1 2 0.0 11.683687 30.804235 19.753592
16998   1 2 0.0 11.884975 32.360324 11.525370
16999   1 2 0.0 11.738945 24.894864 15.199898
17000   1 2 0.0 12.273690 31.593463 15.421824
17001   1 2 0.0 12.425074 36.082951 13.480168
17002   1 2 0.0 12.683096 33.195762 18.888747
17003   1 2 0.0 11.506430 31.683550 13.615670
17004   1 2 0.0 11.104542 27.157970 12.354412
17005   1 1 0.0 14.835733 41.312374 27.284129
17006   1 1 0.0 13.051570 38.515099 19.656350
17007   1 1 0.0 15.134204 40.074588 24.329713
17008   1 1 0.0 14.473446 41.091452 20.673232
17009   1 2 0.0 13.763756 39.118404 26.852172
17010   1 2 0.0 14.295687 40.594541 18.623950
17011   1 2 0.0 12.544105 33.336003 22.298478
17012   1 2 0.0 14.509991 39.761925 22.520404
17013   1 2 0.0 15.625408 44.113277 20.578748
17014   1 2 0.0 15.255108 41.238331 25.987327
17015   1 2 0.0 13.780178 40.015258 20.714250
17016   1 2 0.0 12.412364 35.682651 19.452992
17017   1 1 0.0 19.106478 48.700247 34.382709
17018   1 1 0.0 16.761366 46.353242 26.754930
17019   1 1 0.0 19.131162 47.427223 31.428293
17020   1 1 0.0 18.705092 48.562598 27.771812
17021   1 2 0.0 17.586841 46.788875 33.950752
17022   1 2 0.0 18.424414 48.115677 25.722530
17023   1 2 0.0 15.149609 41.405232 29.397058
17024   1 2 0.0 18.454232 47.256441 29.618984
17025   1 2 0.0 20.481255 51.265131 27.677328
17026   1 2 0.0 19.500039 48.537559 33.085907
17027   1 2 0.0 17.796171 47.661112 27.812830
17028   1 2 0.0 15.526723 43.725124 26.551572
17029   1 1 0.0 24.869117 54.994047 41.481289
17030   1 1 0.0 22.073283 53.207627 33.853510
17031   1 1 0.0 24.618854 53.745622 38.526873
17032   1 1 0.0 24.447497 54.946142 34.870392
17033   1 2 0.0 22.973247 53.455114 41.049332
17034   1 2 0.0 24.077094 54.570216 32.821110
17035   1 2 0.0 19.432991 48.723275 36.495638
17036   1 2 0.0 23.921025 53.724747 36.717564
17037   1 2 0.0 26.764378 57.202356 34.775908
17038   1 2 0.0 25.218366 54.750361 40.184487
17039   1 2 0.0 23.365645 54.261736 34.911410
17040   1 2 0.0 20.301234 50.907369 33.650152
17041   1 1 0.0 31.852789 59.897949 48.579869
17042   1 1 0.0 28.737645 58.756081 40.952090
17043   1 1 0.0 31.339342 58.732801 45.625453
17044   1 1 0.0 31.430753 59.942039 41.968972
17045   1 2 0.0 29.669798 58.803787 48.147912
17046   1 2 0.0 30.988034 59.654779 39.919690
17047   1 2 0.0 25.192919 54.946163 43.594218
17048   1 2 0.0 30.653414 58.862815 43.816144
17049   1 2 0.0 34.179452 61.645885 41.874488
17050   1 2 0.0 32.141310 59.584718 47.283067
17051   1 2 0.0 30.226821 59.506882 42.009990
17052   1 2 0.0 26.511481 56.891801 40.748732
17053   1 1 0.0 35.806973 59.454652 57.398033
17054   1 1 0.0 31.072993 58.580327 51.619433
17055   1 1 0.0 35.739725 57.994354 53.995824
17056   1 1 0.0 34.494566 59.219415 51.948624
17057   1 2 0.0 33.700726 58.754618 56.873720
17058   1 2 0.0 34.082487 58.807854 49.960203
17059   1 2 0.0 29.640566 55.404091 51.821599
17060   1 2 0.0 34.577369 58.252215 52.787270
17061   1 2 0.0 36.552846 60.593687 52.598584
17062   1 2 0.0 36.312087 58.884379 55.878089
17063   1 2 0.0 32.930189 59.097057 52.320847
17064   1 2 0.0 29.593307 56.999831 50.594204
17065   1 1 0.0 43.494957 61.896356 64.496613
17066   1 1 0.0 38.683793 62.062864 58.718013
17067   1 1 0.0 43.114560 60.484870 61.094404
17068   1 1 0.0 42.162694 61.949502 59.047204
17069   1 2 0.0 41.287336 61.666719 63.972300
17070   1 2 0.0 41.671598 61.636426 57.058783
17071   1 2 0.0 36.600477 59.269995 58.920179
17072   1 2 0.0 42.035096 60.987186 59.885850
17073   1 2 0.0 44.468789 62.847868 59.697164
17074   1 2 0.0 43.865293 61.230620 62.976669
17075   1 2 0.0 40.608710 62.167180 59.419427
17076   1 2 0.0 36.898248 60.838419 57.692784
17077   1 1 0.0 51.528507 62.623732 71.595193
17078   1 1 0.0 46.866299 63.823248 65.816593
17079   1 1 0.0 50.852842 61.327403 68.192984
17080   1 1 0.0 50.239008 62.962764 66.145784
17081   1 2 0.0 49.323276 62.875287 71.070880
17082   1 2 0.0 49.691979 62.762889 64.157363
17083   1 2 0.0 44.230014 61.545019 66.018759
17084   1 2 0.0 49.907007 62.050564 66.984430
17085   1 2 0.0 52.684526 63.342999 66.795744
17086   1 2 0.0 51.746657 61.893827 70.075249
17087   1 2 0.0 48.768460 63.510246 66.518007
17088   1 2 0.0 44.858820 63.012406 64.791364
17089   1 1 0.0 59.530024 61.602594 78.693773
17090   1 1 0.0 55.235909 63.778735 72.915173
17091   1 1 0.0 58.590848 60.482352 75.291564
17092   1 1 0.0 58.343900 62.211576 73.244364
17093   1 2 0.0 57.430835 62.323517 78.169460
17094   1 2 0.0 57.766649 62.134295 71.255943
17095   1 2 0.0 52.170568 62.122231 73.117339
17096   1 2 0.0 57.823101 61.392368 74.083010
17097   1 2 0.0 60.813895 62.055807 73.894324
17098   1 2 0.0 59.585736 60.842826 77.173829
17099   1 2 0.0 57.025907 63.063129 73.616587
17100   1 2 0.0 53.100852 63.419609 71.889944
17101   1 1 0.0 67.123415 58.880937 85.792353
17102   1 1 0.0 63.399228 61.931420 80.013753
17103   1 1 0.0 65.964873 57.989437 82.390144
17104   1 1 0.0 66.096417 59.731244 80.342944
17105   1 2 0.0 65.228936 60.037342 85.268040
17106   1 2 0.0 65.516076 59.780192 78.354523
17107   1 2 0.0 60.048910 60.974499 80.215919
17108   1 2 0.0 65.411298 59.043534 81.181590
17109   1 2 0.0 68.474791 59.046794 80.992904
17110   1 2 0.0 67.014070 58.127017 84.272409
17111   1 2 0.0 64.992929 60.846844 80.715167
17112   1 2 0.0 61.236948 62.040889 78.988524
17113   1 1 0.0 73.951769 54.586686 92.890933
17114   1 1 0.0 70.972557 58.368129 87.112333
17115   1 1 0.0 72.628315 53.965831 89.488724
17116   1 1 0.0 73.132168 55.638353 87.441524
17117   1 2 0.0 72.351046 56.124219 92.366620
17118   1 2 0.0 72.576015 55.811227 85.453103
17119   1 2 0.0 67.494737 58.155771 87.314499
17120   1 2 0.0 72.314933 55.114464 88.280170
17121   1 2 0.0 75.307132 54.457392 88.091484
17122   1 2 0.0 73.682505 53.874051 91.370989
17123   1 2 0.0 72.295052 56.965562 87.813747
17124   1 2 0.0 68.884687 58.941048 86.087104
17125   1 1 0.0 79.694134 48.921683 99.989513
17126   1 1 0.0 77.599928 53.256348 94.210913
17127   1 1 0.0 78.267973 48.600656 96.587304
17128   1 1 0.0 79.120454 50.125278 94.540104
17129   1 2 0.0 78.462405 50.768077 99.465200
17130   1 2 0.0 78.614630 50.413954 92.551683
17131   1 2 0.0 74.158074 53.798533 94.413079
17132   1 2 0.0 78.209514 49.789835 95.378750
17133   1 2 0.0 80.989778 48.503315 95.190064
17134   1 2 0.0 79.277608 48.283829 98.469569
17135   1 2 0.0 78.589056 51.601715 94.912327
17136   1 2 0.0 75.684604 54.265789 93.185684
17137   1 1 0.0 84.080602 42.152201 107.088093
17138   1 1 0.0 82.969837 46.836346 101.309493
17139   1 1 0.0 82.618770 42.146089 103.685884
17140   1 1 0.0 83.779808 43.451151 101.638684
17141   1 2 0.0 83.275762 44.220668 106.563780
17142   1 2 0.0 83.348088 43.842059 99.650263
17143   1 2 0.0 79.725725 48.107590 101.511659
17144   1 2 0.0 82.817981 43.319920 102.477330
17145   1 2 0.0 85.255629 41.464423 102.288644
17146   1 2 0.0 83.536393 41.619108 105.568149
17147   1 2 0.0 83.579106 45.007418 102.010907
17148   1 2 0.0 81.317083 48.234861 100.284264
17149   1 1 0.0 86.904999 34.596422 114.186673
17150   1 1 0.0 86.829882 39.409880 108.408073
17151   1 1 0.0 85.476204 34.905514 110.784464
17152   1 1 0.0 86.891228 35.929673 108.737264
17153   1 2 0.0 86.564877 36.789739 113.662360
17154   1 2 0.0 86.553904 36.404441 106.748843
17155   1 2 0.0 83.935994 41.350431 108.610239
17156   1 2 0.0 85.923721 36.008823 109.575910
17157   1 2 0.0 87.904178 33.671561 109.387224
17158   1 2 0.0 86.258685 34.193147 112.666729
17159   1 2 0.0 87.030655 37.492622 109.109487
17160   1 2 0.0 85.517384 41.131735 107.382844
17161   1 1 0.0 88.034567 26.609490 121.285253
17162   1 1 0.0 88.998631 31.326014 115.506653
17163   1 1 0.0 86.705968 27.219257 117.883044
17164   1 1 0.0 88.308468 27.914376 115.835844
17165   1 2 0.0 88.175151 28.824566 120.760940
17166   1 2 0.0 88.081395 28.450687 113.847423
17167   1 2 0.0 86.590989 33.844662 115.708819
17168   1 2 0.0 87.380758 28.200187 116.674490
17169   1 2 0.0 88.810935 25.491018 116.485804
17170   1 2 0.0 87.316528 26.354989 119.765309
17171   1 2 0.0 88.781471 29.410544 116.208067
17172   1 2 0.0 88.088079 33.290278 114.481424
17173   1 1 0.0 87.416216 18.566814 128.383833
17174   1 1 0.0 89.374146 22.964714 122.605233
17175   1 1 0.0 86.250260 19.448595 124.981624
17176   1 1 0.0 87.964913 19.782001 122.934424
17177   1 2 0.0 88.030898 20.699533 127.859520
17178   1 2 0.0 87.858765 20.354647 120.946003
17179   1 2 0.0 87.565915 25.943074 122.807399
17180   1 2 0.0 87.120605 20.261038 123.773070
17181   1 2 0.0 87.933281 17.307302 123.584384
17182   1 2 0.0 86.660201 18.473048 126.863889
17183   1 2 0.0 88.749260 21.141063 123.306647
17184   1 2 0.0 88.908339 25.079061 121.580004
17185   1 1 0.0 85.079010 10.846420 135.482413
17186   1 1 0.0 87.938777 14.718984 129.703813
17187   1 1 0.0 84.130500 11.958770 132.080204
17188   1 1 0.0 85.876713 11.914792 130.033004
17189   1 2 0.0 86.138897 12.796539 134.958100
17190   1 2 0.0 85.896478 12.496858 128.044583
17191   1 2 0.0 86.814949 18.017065 129.905979
17192   1 2 0.0 85.155491 12.564539 130.871650
17193   1 2 0.0 85.312468 9.505069 130.682964
17194   1 2 0.0 84.320553 10.917798 133.962469
17195   1 2 0.0 86.935537 13.072869 130.405227
17196   1 2 0.0 87.939609 16.884033 128.678584
17197   1 1 0.0 81.132802 3.811191 142.580993
17198   1 1 0.0 84.759991 6.976396 136.802393
17199   1 1 0.0 80.446321 5.101825 139.178784
17200   1 1 0.0 82.142018 4.682530 137.131584
17201   1 2 0.0 82.588078 5.487049 142.056680
17202   1 2 0.0 82.286768 5.246657 135.143163
17203   1 2 0.0 84.373389 10.439179 137.004559
17204   1 2 0.0 81.577782 5.472448 137.970230
17205   1 2 0.0 81.071681 2.451048 137.781544
17206   1 2 0.0 80.407554 4.044357 141.061049
17207   1 2 0.0 83.425551 5.585189 137.503807
17208   1 2 0.0 85.227423 9.090384 135.777164
17209   1 1 0.0 75.763077 -2.208199 149.679573
17210   1 1 0.0 79.987199 0.100874 143.900973
17211   1 1 0.0 75.370892 -0.799944 146.277364
17212   1 1 0.0 76.936370 -1.574848 144.230164
17213   1 2 0.0 77.545339 -0.885373 149.155260
17214   1 2 0.0 77.199300 -1.055176 142.241743
17215   1 2 0.0 80.355995 3.565598 144.103139
17216   1 2 0.0 76.555640 -0.681887 145.068810
17217   1 2 0.0 75.410249 -3.523204 144.880124
17218   1 2 0.0 75.105126 -1.824205 148.159629
17219   1 2 0.0 78.384282 -0.970034 144.602387
17220   1 2 0.0 80.899260 2.064438 142.875744
17221   1 1 0.0 69.222227 -6.928822 156.778153
17222   1 1 0.0 73.844735 -5.584414 150.999553
17223   1 1 0.0 69.142771 -5.469137 153.375944
17224   1 1 0.0 70.504447 -6.563227 151.328744
17225   1 2 0.0 71.247703 -6.021204 156.253840
17226   1 2 0.0 70.873200 -6.112436 149.340323
17227   1 2 0.0 74.951595 -2.280600 151.201719
17228   1 2 0.0 70.325119 -5.609197 152.167390
17229   1 2 0.0 68.594276 -8.136880 151.978704
17230   1 2 0.0 68.662498 -6.412048 155.258209
17231   1 2 0.0 72.048683 -6.284687 151.700967
17232   1 2 0.0 75.158557 -3.863568 149.974324
17233   1 1 0.0 61.817689 -10.128795 163.876733
17234   1 1 0.0 66.621314 -9.812243 158.098133
17235   1 1 0.0 62.054697 -8.686290 160.474524
17236   1 1 0.0 63.148570 -10.048141 158.427324
17237   1 2 0.0 63.991177 -9.679045 163.352420
17238   1 2 0.0 63.605813 -9.687419 156.438903
17239   1 2 0.0 68.414211 -6.824627 158.300299
17240   1 2 0.0 63.179073 -9.077882 159.265970
17241   1 2 0.0 60.944131 -11.173123 159.077284
17242   1 2 0.0 61.382492 -9.503531 162.356789
17243   1 2 0.0 64.716546 -10.108967 158.799547
17244   1 2 0.0 68.275142 -8.414998 157.072904
17245   1 1 0.0 53.897498 -11.657710 170.975313
17246   1 1 0.0 58.656456 -12.383893 165.196713
17247   1 1 0.0 54.439830 -10.300187 167.573104
17248   1 1 0.0 55.214484 -11.865788 165.525904
17249   1 2 0.0 56.116838 -11.686968 170.451000
17250   1 2 0.0 55.738726 -11.612091 163.537483
17251   1 2 0.0 61.051119 -9.852902 165.398879
17252   1 2 0.0 55.453384 -10.924906 166.364550
17253   1 2 0.0 52.819392 -12.489223 166.175864
17254   1 2 0.0 53.607288 -10.953345 169.455369
17255   1 2 0.0 56.732501 -12.263121 165.898127
17256   1 2 0.0 60.572556 -11.375925 164.171484
17257   1 1 0.0 45.833925 -11.443704 178.073893
17258   1 1 0.0 50.324531 -13.178489 172.295293
17259   1 1 0.0 46.656090 -10.234970 174.671684
17260   1 1 0.0 47.075115 -11.930734 172.624484
17261   1 2 0.0 47.994802 -11.950595 177.549580
17262   1 2 0.0 47.641714 -11.795985 170.636063
17263   1 2 0.0 53.208405 -11.223087 172.497459
17264   1 2 0.0 47.511182 -11.063452 173.463130
17265   1 2 0.0 44.601946 -12.023318 173.274444
17266   1 2 0.0 45.702343 -10.693346 176.553949
17267   1 2 0.0 48.471822 -12.645897 172.996707
17268   1 2 0.0 52.412841 -12.607175 171.270064
17269   1 1 0.0 38.005981 -9.496836 185.172473
17270   1 1 0.0 42.017164 -12.158684 179.393873
17271   1 1 0.0 39.069335 -8.493706 181.770264
17272   1 1 0.0 39.113034 -10.239926 179.723064
17273   1 2 0.0 40.006827 -10.457535 184.648160
17274   1 2 0.0 39.695359 -10.230460 177.734643
17275   1 2 0.0 45.254699 -10.870780 179.596039
17276   1 2 0.0 39.725774 -9.487010 180.561710
17277   1 2 0.0 36.678034 -9.797307 180.373024
17278   1 2 0.0 38.039211 -8.735753 183.652529
17279   1 2 0.0 40.322782 -11.239306 180.095287
17280   1 2 0.0 44.179528 -12.050876 178.368644
17281   1 1 0.0 30.781601 -5.908615 192.271053
17282   1 1 0.0 34.124824 -9.372410 186.492453
17283   1 1 0.0 32.036163 -5.158237 188.868844
17284   1 1 0.0 31.702483 -6.872837 186.821644
17285   1 2 0.0 32.528370 -7.277965 191.746740
17286   1 2 0.0 32.273163 -6.989098 184.833223
17287   1 2 0.0 37.563846 -8.812540 186.694619
17288   1 2 0.0 32.463094 -6.269675 187.660290
17289   1 2 0.0 29.420104 -5.915820 187.471604
17290   1 2 0.0 30.978081 -5.172580 190.751109
17291   1 2 0.0 32.668410 -8.109459 187.193867
17292   1 2 0.0 36.259604 -9.733177 185.467224
17293   1 1 0.0 24.500351 -0.847696 199.369633
17294   1 1 0.0 27.018473 -4.950631 193.591033
17295   1 1 0.0 25.887153 -0.385341 195.967424
17296   1 1 0.0 25.191778 -1.987730 193.920224
17297   1 2 0.0 25.910941 -2.561335 198.845320
17298   1 2 0.0 25.723989 -2.224253 191.931803
17299   1 2 0.0 30.497339 -5.145109 193.793199
17300   1 2 0.0 26.064509 -1.562672 194.758870
17301   1 2 0.0 23.169298 -0.561297 194.570184
17302   1 2 0.0 24.850847 -0.171305 197.849689
17303   1 2 0.0 25.868483 -3.403470 194.292447
17304   1 2 0.0 29.025329 -5.763015 192.565804
17305   1 1 0.0 19.457467 5.448043 1.146337
17306   1 1 0.0 21.032130 0.898817 200.689613
17307   1 1 0.0 20.911326 5.600643 203.066004
17308   1 1 0.0 19.886941 4.185783 201.018804
17309   1 2 0.0 20.465577 3.470661 0.622024
17310   1 2 0.0 20.355667 3.840114 199.030383
17311   1 2 0.0 24.387323 -0.040868 200.891779
17312   1 2 0.0 20.830771 4.412756 201.857450
17313   1 2 0.0 18.219422 6.014585 201.668764
17314   1 2 0.0 19.945504 6.032998 204.948269
17315   1 2 0.0 20.242616 2.657469 201.391027
17316   1 2 0.0 22.816734 -0.327000 199.664384
17317   1 1 0.0 15.889980 12.682685 8.244917
17318   1 1 0.0 16.447170 7.900995 2.466317
17319   1 1 0.0 17.342560 12.518357 4.842708
17320   1 1 0.0 16.037313 11.357527 2.795508
17321   1 2 0.0 16.448224 10.534502 7.720604
17322   1 2 0.0 16.420524 10.918960 0.807087
17323   1 2 0.0 19.520986 6.260269 2.668483
17324   1 2 0.0 17.007880 11.375749 3.634154
17325   1 2 0.0 14.803133 13.502740 3.445468
17326   1 2 0.0 16.492619 13.148708 6.724973
17327   1 2 0.0 16.055242 9.788474 3.167731
17328   1 2 0.0 17.925640 6.319361 1.441088
17329   1 1 0.0 13.965570 20.516180 15.343497
17330   1 1 0.0 13.479098 15.726779 9.564897
17331   1 1 0.0 15.348596 20.042649 11.941288
17332   1 1 0.0 13.823838 19.190412 9.894088
17333   1 2 0.0 14.047711 18.298168 14.819184
17334   1 2 0.0 14.103521 18.679561 7.905667
17335   1 2 0.0 16.127059 13.462132 9.767063
17336   1 2 0.0 14.775523 18.999025 10.732734
17337   1 2 0.0 13.081008 21.551204 10.544048
17338   1 2 0.0 14.654485 20.841368 13.823553
17339   1 2 0.0 13.503177 17.654370 10.266311
17340   1 2 0.0 14.581942 13.863671 8.539668
17341   1 1 0.0 13.774691 28.580334 22.442077
17342   1 1 0.0 12.267422 24.008336 16.663477
17343   1 1 0.0 15.023157 27.819856 19.039868
17344   1 1 0.0 13.350555 27.316270 16.992668
17345   1 2 0.0 13.376867 26.396745 21.917764
17346   1 2 0.0 13.513565 26.757146 15.004247
17347   1 2 0.0 14.365068 21.226213 16.865643
17348   1 2 0.0 14.238626 26.924270 17.831314
17349   1 2 0.0 13.133990 29.781678 17.642628
17350   1 2 0.0 14.517502 28.749402 20.922133
17351   1 2 0.0 12.706377 25.885436 17.364891
17352   1 2 0.0 12.942804 21.951325 15.638248
17353   1 1 0.0 15.326315 36.496107 29.540657
17354   1 1 0.0 12.869095 32.356410 23.762057
17355   1 1 0.0 16.381539 35.484428 26.138448
17356   1 1 0.0 14.639711 35.353162 24.091248
17357   1 2 0.0 14.467225 34.449576 29.016344
17358   1 2 0.0 14.678386 34.772046 22.102827
17359   1 2 0.0 14.317829 29.187579 23.964223
17360   1 2 0.0 15.422425 34.778974 24.929894
17361   1 2 0.0 14.959589 37.807304 24.741208
17362   1 2 0.0 16.088107 36.501109 28.020713
17363   1 2 0.0 13.702293 34.094791 24.463471
17364   1 2 0.0 13.085269 30.202180 22.736828
17365   1 1 0.0 18.547511 43.891437 36.639237
17366   1 1 0.0 15.255836 40.378618 30.860637
17367   1 1 0.0 19.359895 42.676108 33.237028
17368   1 1 0.0 17.630711 42.923332 31.189828
17369   1 2 0.0 17.267535 42.078156 36.114924
17370   1 2 0.0 17.543233 42.347537 29.201407
17371   1 2 0.0 15.987564 36.972022 31.062803
17372   1 2 0.0 18.271280 42.193945 32.028474
17373   1 2 0.0 18.471997 45.250857 31.839788
17374   1 2 0.0 19.292477 43.732137 35.119293
17375   1 2 0.0 16.444115 41.896570 31.562051
17376   1 2 0.0 15.002642 38.228425 29.835408
17377   1 1 0.0 23.286873 50.418722 43.737817
17378   1 1 0.0 19.315461 47.697894 37.959217
17379   1 1 0.0 23.818233 49.056867 40.335608
17380   1 1 0.0 22.182970 49.670961 38.288408
17381   1 2 0.0 21.646173 48.923921 43.213504
17382   1 2 0.0 21.973450 49.127552 36.299987
17383   1 2 0.0 19.295791 44.213652 38.161383
17384   1 2 0.0 22.651284 48.820658 39.127054
17385   1 2 0.0 23.506122 51.762469 38.938368
17386   1 2 0.0 23.979999 50.102607 42.217873
17387   1 2 0.0 20.802969 48.924069 38.660631
17388   1 2 0.0 18.604800 45.652802 36.933988
17389   1 1 0.0 29.321639 55.771161 50.836397
17390   1 1 0.0 24.857157 53.970210 45.057797
17391   1 1 0.0 29.546999 54.326791 47.434188
17392   1 1 0.0 28.082518 55.278891 45.386988
17393   1 2 0.0 27.397333 54.665100 50.312084
17394   1 2 0.0 27.760805 54.793410 43.398567
17395   1 2 0.0 24.087013 50.572093 45.259963
17396   1 2 0.0 28.356566 54.347638 46.225634
17397   1 2 0.0 29.825344 57.036075 46.036948
17398   1 2 0.0 29.930345 55.313091 49.316453
17399   1 2 0.0 26.573977 54.846975 45.759211
17400   1 2 0.0 23.722432 52.126345 44.032568
17401   1 1 0.0 35.596792 55.286029 56.840421
17402   1 1 0.0 30.005684 54.524759 52.433351
17403   1 1 0.0 35.923146 53.618488 53.264626
17404   1 1 0.0 33.523310 55.018266 52.466059
17405   1 2 0.0 33.850275 54.626020 56.145154
17406   1 2 0.0 33.143146 54.514278 50.588623
17407   1 2 0.0 30.810416 51.271433 50.699914
17408   1 2 0.0 34.374650 53.964346 52.552552
17409   1 2 0.0 34.861033 56.487890 53.619386
17410   1 2 0.0 36.219689 54.593882 55.257858
17411   1 2 0.0 31.896893 54.995553 52.962671
17412   1 2 0.0 29.305891 52.886399 50.850437
17413   1 1 0.0 42.391278 57.871000 63.939001
17414   1 1 0.0 36.767496 58.332638 59.531931
17415   1 1 0.0 42.350567 56.172312 60.363206
17416   1 1 0.0 40.308816 58.056414 59.564639
17417   1 2 0.0 40.543559 57.602918 63.243734
17418   1 2 0.0 39.828965 57.646205 57.687203
17419   1 2 0.0 36.852147 54.982331 57.798494
17420   1 2 0.0 40.913004 56.843779 59.651132
17421   1 2 0.0 41.931839 59.203189 60.717966
17422   1 2 0.0 42.850362 57.060870 62.356438
17423   1 2 0.0 38.715727 58.384767 60.061251
17424   1 2 0.0 35.731044 56.883604 57.949017
17425   1 1 0.0 49.583206 58.930847 71.037581
17426   1 1 0.0 44.191085 60.593695 66.630511
17427   1 1 0.0 49.177345 57.280855 67.461786
17428   1 1 0.0 47.589646 59.560724 66.663219
17429   1 2 0.0 47.721133 59.067293 70.342314
17430   1 2 0.0 47.032663 59.263575 64.785783
17431   1 2 0.0 43.551676 57.303880 64.897074
17432   1 2 0.0 47.918284 58.246371 66.749712
17433   1 2 0.0 49.421684 60.330748 67.816546
17434   1 2 0.0 49.856899 58.040813 69.455018
17435   1 2 0.0 46.104765 60.224709 67.159831
17436   1 2 0.0 42.866690 59.402095 65.047597
17437   1 1 0.0 56.834536 58.415755 78.136161
17438   1 1 0.0 51.927521 61.201654 73.729091
17439   1 1 0.0 56.082601 56.892013 74.560366
17440   1 1 0.0 55.023582 59.460489 73.761799
17441   1 2 0.0 55.045632 58.950315 77.440894
17442   1 2 0.0 54.415645 59.290366 71.884363
17443   1 2 0.0 50.594105 58.126962 71.995654
17444   1 2 0.0 55.061221 58.106195 73.848292
17445   1 2 0.0 56.978522 59.817568 74.915126
17446   1 2 0.0 56.909974 57.487651 76.553598
17447   1 2 0.0 53.716701 60.428896 74.258411
17448   1 2 0.0 50.377433 60.323497 72.146177
17449   1 1 0.0 63.804436 56.349935 85.234741
17450   1 1 0.0 59.613169 60.127939 80.827671
17451   1 1 0.0 62.741769 55.024062 81.658946
17452   1 1 0.0 62.261206 57.760419 80.860379
17453   1 2 0.0 62.172784 57.257483 84.539474
17454   1 2 0.0 61.630891 57.725320 78.982943
17455   1 2 0.0 57.648422 57.412890 79.094234
17456   1 2 0.0 62.006078 56.429842 80.946872
17457   1 2 0.0 64.247161 57.687771 82.013706
17458   1 2 0.0 63.678072 55.427384 83.652178
17459   1 2 0.0 61.193754 58.987731 81.356991
17460   1 2 0.0 57.910246 59.604501 79.244757
17461   1 1 0.0 70.165299 52.830485 92.333321
17462   1 1 0.0 66.886783 57.423018 87.926251
17463   1 1 0.0 68.841849 51.764802 88.757526
17464   1 1 0.0 68.962330 54.540424 87.958959
17465   1 2 0.0 68.767591 54.068365 91.638054
17466   1 2 0.0 68.339264 54.641997 86.081523
17467   1 2 0.0 64.383052 55.195227 86.192814
17468   1 2 0.0 68.426427 53.296103 88.045452
17469   1 2 0.0 70.885955 54.041462 89.112286
17470   1 2 0.0 69.843073 51.956850 90.750758
17471   1 2 0.0 68.184480 55.968954 88.455571
17472   1 2 0.0 65.111068 57.278902 86.343337
17473   1 1 0.0 75.618148 48.022830 99.431901
17474   1 1 0.0 73.406482 53.214030 95.024831
17475   1 1 0.0 74.096122 47.267427 95.856106
17476   1 1 0.0 74.811983 49.951851 95.057539
17477   1 2 0.0 74.520081 49.532857 98.736634
17478   1 2 0.0 74.225451 50.185323 93.180103
17479   1 2 0.0 70.481450 51.578208 93.291394
17480   1 2 0.0 74.020494 48.852273 95.144032
17481   1 2 0.0 76.582862 49.050029 96.210866
17482   1 2 0.0 75.115206 47.239174 97.849338
17483   1 2 0.0 74.360295 51.514454 95.554151
17484   1 2 0.0 71.641438 53.456010 93.441917
17485   1 1 0.0 79.906684 42.152944 106.530481
17486   1 1 0.0 78.865822 47.698810 102.123411
17487   1 1 0.0 78.257620 41.743326 102.954686
17488   1 1 0.0 79.535215 44.210378 102.156119
17489   1 2 0.0 79.159870 43.864142 105.835214
17490   1 2 0.0 79.012786 44.564774 100.278683
17491   1 2 0.0 75.656974 46.731846 100.389974
17492   1 2 0.0 78.525341 43.307226 102.242612
17493   1 2 0.0 81.070112 42.948083 103.309446
17494   1 2 0.0 79.246665 41.496100 104.947918
17495   1 2 0.0 79.430920 45.833606 102.652731
17496   1 2 0.0 77.194412 48.315511 100.540497
17497   1 1 0.0 82.829333 35.496726 113.629061
17498   1 1 0.0 83.008199 41.136587 109.221991
17499   1 1 0.0 81.130742 35.452148 110.053266
17500   1 1 0.0 82.910020 37.585868 109.254699
17501   1 2 0.0 82.468874 37.328665 112.933794
17502   1 2 0.0 82.476249 38.044531 107.377263
17503   1 2 0.0 79.666360 40.883931 107.488554
17504   1 2 0.0 81.729229 36.921593 109.341192
17505   1 2 0.0 84.136790 36.022432 110.408026
17506   1 2 0.0 82.043260 34.997569 112.046498
17507   1 2 0.0 83.158021 39.193426 109.751311
17508   1 2 0.0 81.508983 42.099024 107.639077
17509   1 1 0.0 84.248723 28.367038 120.727641
17510   1 1 0.0 85.638909 33.835805 116.320571
17511   1 1 0.0 82.580443 28.689595 117.151846
17512   1 1 0.0 84.777773 30.389693 116.353279
17513   1 2 0.0 84.291561 30.233612 120.032374
17514   1 2 0.0 84.453050 30.931065 114.475843
17515   1 2 0.0 82.321154 34.309333 114.587134
17516   1 2 0.0 83.481566 29.995518 116.439772
17517   1 2 0.0 85.638755 28.598602 117.506606
17518   1 2 0.0 83.373543 28.049030 119.145078
17519   1 2 0.0 85.366413 31.906021 116.849891
17520   1 2 0.0 84.382354 35.098740 114.737657
17521   1 1 0.0 84.098138 21.098996 127.826221
17522   1 1 0.0 86.634302 26.139621 123.419151
17523   1 1 0.0 82.538584 21.773526 124.250426
17524   1 1 0.0 85.050685 22.960093 123.451859
17525   1 2 0.0 84.542261 22.912470 127.130954
17526   1 2 0.0 84.850271 23.558727 121.574423
17527   1 2 0.0 83.496575 27.317075 121.685714
17528   1 2 0.0 83.699986 22.854545 123.538352
17529   1 2 0.0 85.505410 21.025533 124.605186
17530   1 2 0.0 83.174988 20.977084 126.243658
17531   1 2 0.0 85.952295 24.313919 123.948471
17532   1 2 0.0 85.679471 27.643693 121.836237
17533   1 1 0.0 82.384656 14.034218 134.924801
17534   1 1 0.0 85.947591 18.409778 130.517731
17535   1 1 0.0 81.007131 15.029017 131.349006
17536   1 1 0.0 83.715927 15.646280 130.550439
17537   1 2 0.0 83.209188 15.709354 134.229534
17538   1 2 0.0 83.649244 16.274039 128.673003
17539   1 2 0.0 83.137375 20.235814 128.784294
17540   1 2 0.0 82.374224 15.834320 130.636932
17541   1 2 0.0 83.743022 13.659181 131.703766
17542   1 2 0.0 81.456926 14.114131 133.342238
17543   1 2 0.0 84.888130 16.773971 131.047051
17544   1 2 0.0 85.339363 20.084290 128.934817
17545   1 1 0.0 79.188816 7.504768 142.023381
17546   1 1 0.0 83.611054 11.009599 137.616311
17547   1 1 0.0 78.058067 8.773077 138.447586
17548   1 1 0.0 80.836238 8.792024 137.649019
17549   1 2 0.0 80.355002 8.962830 141.328114
17550   1 2 0.0 80.906419 9.419402 135.771583
17551   1 2 0.0 81.260436 13.398389 135.882874
17552   1 2 0.0 79.566594 9.264814 137.735512
17553   1 2 0.0 80.434429 6.845785 138.802346
17554   1 2 0.0 78.300112 7.782751 140.440818
17555   1 2 0.0 82.223937 9.640575 138.145631
17556   1 2 0.0 83.378017 12.775846 136.033397
17557   1 1 0.0 74.660831 1.817549 149.121961
17558   1 1 0.0 79.734515 4.286914 144.714891
17559   1 1 0.0 73.830007 3.299754 145.546166
17560   1 1 0.0 76.546970 2.719493 144.747599
17561   1 2 0.0 76.113857 2.990003 148.426694
17562   1 2 0.0 76.750717 3.317002 142.870163
17563   1 2 0.0 77.953981 7.126178 142.981454
17564   1 2 0.0 75.409062 3.454811 144.834092
17565   1 2 0.0 75.735144 0.905593 145.900926
17566   1 2 0.0 73.852925 2.280536 147.539398
17567   1 2 0.0 78.084940 3.249021 145.244211
17568   1 2 0.0 79.887623 6.061876 143.131977
17569   1 1 0.0 69.013529 -2.760124 156.220541
17570   1 1 0.0 74.500181 -1.442292 151.813471
17571   1 1 0.0 68.521681 -1.133691 152.644746
17572   1 1 0.0 71.049732 -2.285885 151.846179
17573   1 2 0.0 70.685099 -1.928386 155.525274
17574   1 2 0.0 71.377467 -1.746331 149.968743
17575   1 2 0.0 73.373421 1.713993 150.080034
17576   1 2 0.0 70.097045 -1.322602 151.932672
17577   1 2 0.0 69.866046 -3.882188 152.999506
17578   1 2 0.0 68.324395 -2.133896 154.637978
17579   1 2 0.0 72.665683 -2.100271 152.342791
17580   1 2 0.0 75.032237 0.257958 150.230557
17581   1 1 0.0 62.512350 -6.013088 163.319121
17582   1 1 0.0 68.154081 -5.908731 158.912051
17583   1 1 0.0 62.382596 -4.318873 159.743326
17584   1 1 0.0 64.602909 -5.988844 158.944759
17585   1 2 0.0 64.323894 -5.561160 162.623854
17586   1 2 0.0 65.039229 -5.532605 157.067323
17587   1 2 0.0 67.734056 -2.583779 157.178614
17588   1 2 0.0 63.880221 -4.842873 159.031252
17589   1 2 0.0 63.103000 -7.292519 160.098086
17590   1 2 0.0 61.974378 -5.253052 161.736558
17591   1 2 0.0 66.220886 -6.155868 159.441371
17592   1 2 0.0 69.040078 -4.363110 157.329137
17593   1 1 0.0 55.462866 -7.788444 170.417701
17594   1 1 0.0 60.994501 -8.902466 166.010631
17595   1 1 0.0 55.701305 -6.106081 166.841906
17596   1 1 0.0 57.509519 -8.215335 166.043339
17597   1 2 0.0 57.329238 -7.737567 169.722434
17598   1 2 0.0 58.033915 -7.863855 164.165903
17599   1 2 0.0 61.300953 -5.565131 164.277194
17600   1 2 0.0 57.050800 -6.940539 166.129832
17601   1 2 0.0 55.763887 -9.165106 167.196666
17602   1 2 0.0 55.101343 -6.930324 168.835138
17603   1 2 0.0 59.053474 -8.727146 166.539951
17604   1 2 0.0 62.192793 -7.584123 164.427717
17605   1 1 0.0 48.196424 -8.002745 177.516281
17606   1 1 0.0 53.357959 -10.282785 173.109211
17607   1 1 0.0 48.791848 -6.411309 173.940486
17608   1 1 0.0 50.102973 -8.860706 173.141919
17609   1 2 0.0 50.029898 -8.355312 176.821014
17610   1 2 0.0 50.690797 -8.630507 171.264483
17611   1 2 0.0 54.376484 -7.089929 171.375774
17612   1 2 0.0 49.929782 -7.517005 173.228412
17613   1 2 0.0 48.193667 -9.411931 174.295246
17614   1 2 0.0 48.028342 -7.086876 175.933718
17615   1 2 0.0 51.500335 -9.693248 173.638531
17616   1 2 0.0 54.812224 -9.253686 171.526297
17617   1 1 0.0 41.054566 -6.645919 184.614861
17618   1 1 0.0 45.603395 -9.984809 180.207791
17619   1 1 0.0 41.978989 -5.220212 181.039066
17620   1 1 0.0 42.731397 -7.894623 180.240499
17621   1 2 0.0 42.768965 -7.385357 183.919594
17622   1 2 0.0 43.355020 -7.796524 178.363063
17623   1 2 0.0 47.286120 -7.086506 178.474354
17624   1 2 0.0 42.851877 -6.545175 180.326992
17625   1 2 0.0 40.748161 -8.021393 181.393826
17626   1 2 0.0 41.087826 -5.715349 183.032298
17627   1 2 0.0 43.916487 -9.008764 180.737111
17628   1 2 0.0 47.245278 -9.293323 178.624877
17629   1 1 0.0 34.372980 -3.781741 191.713441
17630   1 1 0.0 38.095295 -8.022542 187.306371
17631   1 1 0.0 35.582952 -2.588775 188.137646
17632   1 1 0.0 35.741278 -5.362495 187.339079
17633   1 2 0.0 35.887722 -4.873295 191.018174
17634   1 2 0.0 36.371387 -5.401107 185.461643
17635   1 2 0.0 40.363127 -5.555020 185.572934
17636   1 2 0.0 36.149764 -4.070727 187.425572
17637   1 2 0.0 33.777329 -5.058851 188.492406
17638   1 2 0.0 34.606019 -2.880208 190.130878
17639   1 2 0.0 36.658393 -6.705868 187.835691
17640   1 2 0.0 39.847624 -7.701172 185.723457
17641   1 1 0.0 28.465719 0.455166 198.812021
17642   1 1 0.0 31.186561 -4.488218 194.404951
17643   1 1 0.0 29.904368 1.359318 195.236226
17644   1 1 0.0 29.461170 -1.383339 194.437659
17645   1 2 0.0 29.709606 -0.937197 198.116754
17646   1 2 0.0 30.068149 -1.556847 192.560223
17647   1 2 0.0 33.932905 -2.567458 192.671514
17648   1 2 0.0 30.138463 -0.209967 194.524152
17649   1 2 0.0 27.608819 -0.663553 195.590986
17650   1 2 0.0 28.887583 1.285286 197.229458
17651   1 2 0.0 30.067203 -2.892800 194.934271
17652   1 2 0.0 32.966970 -4.552069 192.822037
17653   1 1 0.0 23.610441 5.865655 0.588725
17654   1 1 0.0 25.201923 0.452041 201.503531
17655   1 1 0.0 25.210146 6.438495 202.334806
17656   1 1 0.0 24.186256 3.855814 201.536239
17657   1 2 0.0 24.525008 4.237926 205.215334
17658   1 2 0.0 24.741576 3.555565 199.658803
17659   1 2 0.0 28.297694 1.735758 199.770094
17660   1 2 0.0 25.100521 4.855637 201.622732
17661   1 2 0.0 22.532569 4.957909 202.689566
17662   1 2 0.0 24.201302 6.585344 204.328038
17663   1 2 0.0 24.452721 2.251213 202.032851
17664   1 2 0.0 26.926729 0.005970 199.920617
17665   1 1 0.0 20.035358 12.195417 7.687305
17666   1 1 0.0 20.422676 6.566029 3.280235
17667   1 1 0.0 21.720928 12.410020 4.111510
17668   1 1 0.0 20.164472 10.108708 3.312943
17669   1 2 0.0 20.577617 10.408832 6.992038
17670   1 2 0.0 20.642030 9.695831 1.435507
17671   1 2 0.0 23.722363 7.152365 1.546798
17672   1 2 0.0 21.272737 10.887988 3.399436
17673   1 2 0.0 18.787177 11.541312 4.466270
17674   1 2 0.0 20.767443 12.770849 6.104742
17675   1 2 0.0 20.078846 8.484388 3.809555
17676   1 2 0.0 22.010807 5.758705 1.697321
17677   1 1 0.0 17.908509 19.146937 14.785885
17678   1 1 0.0 17.073457 13.566371 10.378815
17679   1 1 0.0 19.600717 18.993216 11.210090
17680   1 1 0.0 17.584853 17.081441 10.411523
17681   1 2 0.0 18.052973 17.285469 14.090618
17682   1 2 0.0 17.962203 16.575342 8.534087
17683   1 2 0.0 20.421966 13.427766 8.645378
17684   1 2 0.0 18.835025 17.603550 10.498016
17685   1 2 0.0 16.548686 18.777217 11.564850
17686   1 2 0.0 18.747407 19.551063 13.203322
17687   1 2 0.0 17.151159 15.513749 10.908135
17688   1 2 0.0 18.450268 12.435740 8.795901
17689   1 1 0.0 17.329861 26.393472 21.884465
17690   1 1 0.0 15.311690 21.124031 17.477395
17691   1 1 0.0 18.949170 25.878653 18.308670
17692   1 1 0.0 16.568648 24.446274 17.510103
17693   1 2 0.0 17.069739 24.544616 21.189198
17694   1 2 0.0 16.828054 23.870742 15.632667
17695   1 2 0.0 18.551631 20.267000 15.743958
17696   1 2 0.0 17.901966 24.686671 17.596596
17697   1 2 0.0 15.922313 26.325515 18.663430
17698   1 2 0.0 18.236143 26.607298 20.301902
17699   1 2 0.0 15.807272 23.008897 18.006715
17700   1 2 0.0 16.412465 19.723236 15.894481
17701   1 1 0.0 18.326613 33.594416 28.983045
17702   1 1 0.0 15.220181 28.883778 24.575975
17703   1 1 0.0 19.796910 32.742697 25.407250
17704   1 1 0.0 17.163622 31.857040 24.608683
17705   1 2 0.0 17.674132 31.845073 28.287778
17706   1 2 0.0 17.292890 31.239125 22.731247
17707   1 2 0.0 18.199269 27.348605 22.842538
17708   1 2 0.0 18.517416 31.804425 24.695176
17709   1 2 0.0 16.937498 33.831417 25.762010
17710   1 2 0.0 19.257681 33.607892 27.400482
17711   1 2 0.0 16.110350 30.617537 25.105295
17712   1 2 0.0 15.993183 27.278661 22.993061
17713   1 1 0.0 20.851914 40.411305 36.081625
17714   1 1 0.0 16.803234 36.480883 31.674555
17715   1 1 0.0 22.104091 39.262717 32.505830
17716   1 1 0.0 19.341809 38.965411 31.707263
17717   1 2 0.0 19.837742 38.843699 35.386358
17718   1 2 0.0 19.334864 38.334158 29.829827
17719   1 2 0.0 19.381443 34.339724 29.941118
17720   1 2 0.0 20.652448 38.622258 31.793756
17721   1 2 0.0 19.546524 40.942122 32.860590
17722   1 2 0.0 21.764005 40.223796 34.499062
17723   1 2 0.0 18.046149 37.982044 32.203875
17724   1 2 0.0 17.212127 34.746888 30.091641
17725   1 1 0.0 24.787069 46.523724 43.180205
17726   1 1 0.0 19.986439 43.558260 38.773135
17727   1 1 0.0 25.762270 45.132256 39.604410
17728   1 1 0.0 23.000829 45.437274 38.805843
17729   1 2 0.0 23.458875 45.211537 42.484938
17730   1 2 0.0 22.857997 44.822353 36.928407
17731   1 2 0.0 22.042585 40.911755 37.039698
17732   1 2 0.0 24.206708 44.819712 38.892336
17733   1 2 0.0 23.626761 47.323409 39.959170
17734   1 2 0.0 25.637311 46.144045 41.597642
17735   1 2 0.0 21.523679 44.756263 39.302455
17736   1 2 0.0 20.012006 41.776889 37.190221
17737   1 1 0.0 29.947113 51.644373 50.278785
17738   1 1 0.0 24.620177 49.783252 45.871715
17739   1 1 0.0 30.599501 50.075428 46.702990
17740   1 1 0.0 27.968697 50.968434 45.904423
17741   1 2 0.0 28.367326 50.649282 49.583518
17742   1 2 0.0 27.696691 50.398748 44.026987
17743   1 2 0.0 26.057616 46.755795 44.138278
17744   1 2 0.0 29.013137 50.105490 45.990916
17745   1 2 0.0 28.986425 52.675339 47.057750
17746   1 2 0.0 30.695544 51.090370 48.696222
17747   1 2 0.0 26.379488 50.621788 46.401035
17748   1 2 0.0 24.261215 48.038236 44.288801
17749   1 1 0.0 38.822381 50.418090 53.157005
17750   1 1 0.0 32.107457 50.349103 50.419994
17751   1 1 0.0 39.388176 48.758432 49.576190
17752   1 1 0.0 35.468798 50.547479 50.372120
17753   1 2 0.0 37.657626 49.896160 52.111886
17754   1 2 0.0 34.998453 50.068783 48.721927
17755   1 2 0.0 35.851644 47.055744 46.126089
17756   1 2 0.0 37.264515 49.339252 49.544443
17757   1 2 0.0 35.990644 52.013059 52.103456
17758   1 2 0.0 39.438511 49.685899 51.634775
17759   1 2 0.0 33.934958 50.660944 50.858493
17760   1 2 0.0 32.256354 48.772968 48.220090
17761   1 1 0.0 44.491905 52.422273 60.255585
17762   1 1 0.0 37.919922 53.802133 57.518574
17763   1 1 0.0 44.686707 50.679677 56.674770
17764   1 1 0.0 41.245021 53.271398 57.470700
17765   1 2 0.0 43.242035 52.163642 59.210466
17766   1 2 0.0 40.682560 52.905323 55.820507
17767   1 2 0.0 40.866318 49.779212 53.224669
17768   1 2 0.0 42.738136 51.704547 56.643023
17769   1 2 0.0 42.070471 54.590065 59.202036
17770   1 2 0.0 44.935750 51.574499 58.733355
17771   1 2 0.0 39.771684 53.712776 57.957073
17772   1 2 0.0 37.725625 52.230949 55.318670
17773   1 1 0.0 50.460135 53.157439 67.354165
17774   1 1 0.0 44.339996 55.921288 64.617154
17775   1 1 0.0 50.274788 51.413811 63.773350
17776   1 1 0.0 47.472565 54.686388 64.569280
17777   1 2 0.0 49.183898 53.174262 66.309046
17778   1 2 0.0 46.844424 54.450140 62.919087
17779   1 2 0.0 46.350113 51.357892 60.323249
17780   1 2 0.0 48.592895 52.834558 63.741603
17781   1 2 0.0 48.562819 55.796161 66.300616
17782   1 2 0.0 50.710834 52.233929 65.831935
17783   1 2 0.0 46.128980 55.434932 65.055653
17784   1 2 0.0 43.811638 54.428904 62.417250
17785   1 1 0.0 56.446550 52.589031 74.452745
17786   1 1 0.0 51.065918 56.606961 71.715734
17787   1 1 0.0 55.889766 50.926327 70.871930
17788   1 1 0.0 53.858716 54.725940 71.667860
17789   1 2 0.0 55.203932 52.880518 73.407626
17790   1 2 0.0 53.194421 54.630623 70.017667
17791   1 2 0.0 52.045274 51.717584 67.421829
17792   1 2 0.0 54.553604 52.676173 70.840183
17793   1 2 0.0 55.162530 55.574656 73.399196
17794   1 2 0.0 56.492318 51.633193 72.930515
17795   1 2 0.0 52.708037 55.746467 72.154233
17796   1 2 0.0 50.228332 55.263524 69.515830
17797   1 1 0.0 62.169770 50.743767 81.551325
17798   1 1 0.0 57.781549 55.826924 78.814314
17799   1 1 0.0 61.267719 49.240140 77.970510
17800   1 1 0.0 60.103309 53.388195 78.766440
17801   1 2 0.0 61.019177 51.296218 80.506206
17802   1 2 0.0 59.434082 53.438290 77.116247
17803   1 2 0.0 57.684112 50.841380 74.520409
17804   1 2 0.0 60.340092 51.236836 77.938763
17805   1 2 0.0 61.559400 53.935962 80.497776
17806   1 2 0.0 62.008457 49.800529 80.029095
17807   1 2 0.0 59.199620 54.632737 79.252813
17808   1 2 0.0 56.674106 54.695579 76.614410
17809   1 1 0.0 67.360788 47.708379 88.649905
17810   1 1 0.0 64.171238 53.617841 85.912894
17811   1 1 0.0 66.155869 46.434503 85.069090
17812   1 1 0.0 65.912829 50.736031 85.865020
17813   1 2 0.0 66.356302 48.495827 87.604786
17814   1 2 0.0 65.270126 50.929183 84.214827
17815   1 2 0.0 63.001587 48.770464 81.618989
17816   1 2 0.0 65.680378 48.584200 85.037343
17817   1 2 0.0 67.452756 50.957103 87.596356
17818   1 2 0.0 66.999976 46.822075 87.127675
17819   1 2 0.0 65.298606 52.146091 86.351393
17820   1 2 0.0 62.845989 52.751765 83.712990
17821   1 1 0.0 71.775611 43.625540 95.748485
17822   1 1 0.0 69.934650 50.083544 93.011474
17823   1 1 0.0 70.324459 42.641290 92.167670
17824   1 1 0.0 71.014212 46.894107 92.963600
17825   1 2 0.0 70.964446 44.610972 94.703366
17826   1 2 0.0 70.428243 47.221238 91.313407
17827   1 2 0.0 67.747763 45.602175 88.717569
17828   1 2 0.0 70.323454 44.842946 92.135923
17829   1 2 0.0 72.565596 46.778093 94.694936
17830   1 2 0.0 71.232259 42.837829 94.226255
17831   1 2 0.0 70.718326 48.403408 93.449973
17832   1 2 0.0 68.453886 49.523445 90.811570
17833   1 1 0.0 75.206731 38.687153 102.847065
17834   1 1 0.0 74.800889 45.390157 100.110054
17835   1 1 0.0 73.577554 38.038793 99.266250
17836   1 1 0.0 75.167680 42.043005 100.062180
17837   1 2 0.0 74.627014 39.824252 101.801946
17838   1 2 0.0 74.665987 42.488737 98.411987
17839   1 2 0.0 71.699555 41.485432 95.816149
17840   1 2 0.0 74.051082 40.188923 99.234503
17841   1 2 0.0 76.657600 41.595356 101.793516
17842   1 2 0.0 74.506379 38.035060 101.324835
17843   1 2 0.0 75.204038 43.580606 100.548553
17844   1 2 0.0 73.234210 45.162360 97.910150
17845   1 1 0.0 77.492876 33.125338 109.945645
17846   1 1 0.0 78.541227 39.758280 107.208634
17847   1 1 0.0 75.762249 32.843341 106.364830
17848   1 1 0.0 78.178008 36.410739 107.160760
17849   1 2 0.0 77.171854 34.360656 108.900526
17850   1 2 0.0 77.784171 36.954123 105.510567
17851   1 2 0.0 74.671219 36.613733 102.914729
17852   1 2 0.0 76.688053 34.840884 106.333083
17853   1 2 0.0 79.536434 35.652498 108.892096
17854   1 2 0.0 76.668441 32.639513 108.423415
17855   1 2 0.0 78.544901 37.904368 107.647133
17856   1 2 0.0 76.962273 39.873494 105.008730
17857   1 1 0.0 78.526589 27.201515 117.044225
17858   1 1 0.0 80.979860 33.452629 114.307214
17859   1 1 0.0 76.775858 27.299137 113.463410
17860   1 1 0.0 79.903702 30.262042 114.259340
17861   1 2 0.0 78.479353 28.476989 115.999106
17862   1 2 0.0 79.636233 30.877537 112.609147
17863   1 2 0.0 76.523077 31.216062 110.013309
17864   1 2 0.0 78.110422 29.050202 113.431663
17865   1 2 0.0 81.066784 29.228848 115.990676
17866   1 2 0.0 77.616823 26.904793 115.521995
17867   1 2 0.0 80.583885 31.641495 114.745713
17868   1 2 0.0 79.462844 33.905437 112.107310
17869   1 1 0.0 78.259285 21.194120 124.142805
17870   1 1 0.0 82.002163 26.769586 121.405794
17871   1 1 0.0 76.570738 21.666772 120.561990
17872   1 1 0.0 80.263650 23.885920 121.357920
17873   1 2 0.0 78.488053 22.449799 123.097686
17874   1 2 0.0 80.135120 24.544596 119.707727
17875   1 2 0.0 77.168088 25.546124 117.111889
17876   1 2 0.0 78.251333 23.089054 120.530243
17877   1 2 0.0 81.176719 22.626335 123.089256
17878   1 2 0.0 77.306948 21.100447 122.620575
17879   1 2 0.0 81.225152 25.086358 121.844293
17880   1 2 0.0 80.618391 27.538706 119.205890
17881   1 1 0.0 76.703526 15.385518 131.241385
17882   1 1 0.0 81.560087 20.023274 128.504374
17883   1 1 0.0 75.156529 16.210984 127.660570
17884   1 1 0.0 79.240932 17.582068 128.456500
17885   1 2 0.0 77.197546 16.562382 130.196266
17886   1 2 0.0 79.257383 18.252966 126.806307
17887   1 2 0.0 76.575934 19.870423 124.210469
17888   1 2 0.0 77.104164 17.237632 127.628823
17889   1 2 0.0 79.861073 16.155298 130.187836
17890   1 2 0.0 75.753381 15.499298 129.719155
17891   1 2 0.0 80.438560 18.547068 128.942873
17892   1 2 0.0 80.374598 21.072553 126.304470
17893   1 1 0.0 73.932437 10.048729 138.339965
17894   1 1 0.0 79.674409 13.530787 135.602954
17895   1 1 0.0 72.599705 11.188210 134.759150
17896   1 1 0.0 76.883620 11.646786 135.555080
17897   1 2 0.0 74.668490 11.091462 137.294846
17898   1 2 0.0 77.044279 12.298371 133.904887
17899   1 2 0.0 74.774448 14.455732 131.309049
17900   1 2 0.0 74.722835 11.770969 134.727403
17901   1 2 0.0 77.181683 10.119892 137.286416
17902   1 2 0.0 73.029145 10.364614 136.817735
17903   1 2 0.0 78.261083 12.330989 136.041453
17904   1 2 0.0 78.742926 14.810908 133.403050
17905   1 1 0.0 70.076269 5.434598 145.438545
17906   1 1 0.0 76.433762 7.597291 142.701534
17907   1 1 0.0 69.020443 6.834534 141.857730
17908   1 1 0.0 73.302513 6.359048 142.653660
17909   1 2 0.0 71.019757 6.294188 144.393426
17910   1 2 0.0 73.599829 6.960694 141.003467
17911   1 2 0.0 71.848304 9.556556 138.407629
17912   1 2 0.0 71.219274 6.946013 141.825983
17913   1 2 0.0 73.264490 4.803798 144.384996
17914   1 2 0.0 69.262286 5.937740 143.916315
17915   1 2 0.0 74.795066 6.730296 143.140033
17916   1 2 0.0 75.800066 9.048084 140.501630
17917   1 1 0.0 65.316270 1.760001 152.537125
17918   1 1 0.0 71.990466 2.501677 149.800114
17919   1 1 0.0 64.586977 3.354593 148.956310
17920   1 1 0.0 68.665935 1.967393 149.752240
17921   1 2 0.0 66.422847 2.396046 151.492006
17922   1 2 0.0 69.085932 2.490821 148.102047
17923   1 2 0.0 67.935041 5.403172 145.506209
17924   1 2 0.0 66.758160 2.989551 148.924563
17925   1 2 0.0 68.293612 0.456888 151.483576
17926   1 2 0.0 64.629856 2.426751 151.014895
17927   1 2 0.0 70.203423 2.008235 150.238613
17928   1 2 0.0 71.684343 4.054951 147.600210
17929   1 1 0.0 59.876176 -0.802345 159.635705
17930   1 1 0.0 66.553367 -1.516547 156.898694
17931   1 1 0.0 59.507695 0.911951 156.054890
17932   1 1 0.0 63.191817 -1.321759 156.850820
17933   1 2 0.0 61.093830 -0.419742 158.590586
17934   1 2 0.0 63.714754 -0.901152 155.200627
17935   1 2 0.0 63.218591 2.190799 152.604789
17936   1 2 0.0 61.549176 0.087547 156.023143
17937   1 2 0.0 62.502694 -2.716520 158.582156
17938   1 2 0.0 59.349594 -0.003326 158.113475
17939   1 2 0.0 64.701974 -1.613242 157.337193
17940   1 2 0.0 66.589206 0.066199 154.698790
17941   1 1 0.0 54.011685 -2.132003 166.734285
17942   1 1 0.0 60.378025 -4.268513 163.997274
17943   1 1 0.0 54.021335 -0.378578 163.153470
17944   1 1 0.0 57.137457 -3.353809 163.949400
17945   1 2 0.0 55.283182 -2.020824 165.689166
17946   1 2 0.0 57.738756 -3.055792 162.299207
17947   1 2 0.0 57.920643 0.070428 159.703369
17948   1 2 0.0 55.837160 -1.623595 163.121723
17949   1 2 0.0 56.163926 -4.567269 165.680736
17950   1 2 0.0 53.669686 -1.238271 165.212055
17951   1 2 0.0 58.549303 -3.963917 164.435773
17952   1 2 0.0 60.754142 -2.730688 161.797370
17953   1 1 0.0 47.998445 -2.166474 173.832865
17954   1 1 0.0 53.754698 -5.624872 171.095854
17955   1 1 0.0 48.385773 -0.456338 170.252050
17956   1 1 0.0 50.787429 -4.033245 171.047980
17957   1 2 0.0 49.264021 -2.331947 172.787746
17958   1 2 0.0 51.438826 -3.871826 169.397787
17959   1 2 0.0 52.290213 -0.858277 166.801949
17960   1 2 0.0 49.890593 -2.063449 170.220303
17961   1 2 0.0 49.575247 -5.008368 172.779316
17962   1 2 0.0 47.857104 -1.220038 172.310635
17963   1 2 0.0 52.034601 -4.933300 171.534353
17964   1 2 0.0 54.453413 -4.204249 168.895950
17965   1 1 0.0 42.119095 -0.904140 180.931445
17966   1 1 0.0 46.994701 -5.521869 178.194434
17967   1 1 0.0 42.865895 0.682328 177.350630
17968   1 1 0.0 44.440200 -3.328131 178.146560
17969   1 2 0.0 43.319265 -1.338485 179.886326
17970   1 2 0.0 45.111078 -3.310897 176.496367
17971   1 2 0.0 46.591948 -0.551665 173.900529
17972   1 2 0.0 43.988979 -1.211338 177.318883
17973   1 2 0.0 43.046344 -4.019083 179.877896
17974   1 2 0.0 42.185055 0.050517 179.409215
17975   1 2 0.0 45.464079 -4.475829 178.632933
17976   1 2 0.0 47.983174 -4.285223 175.994530
17977   1 1 0.0 36.649981 1.595668 188.030025
17978   1 1 0.0 40.415773 -3.964348 185.293014
17979   1 1 0.0 37.721152 2.983898 184.449210
17980   1 1 0.0 38.394110 -1.271610 185.245140
17981   1 2 0.0 37.728334 0.912865 186.984906
17982   1 2 0.0 39.052935 -1.399371 183.594947
17983   1 2 0.0 41.093682 0.975853 180.999109
17984   1 2 0.0 38.409712 0.892685 184.417463
17985   1 2 0.0 36.884095 -1.645914 186.976476
17986   1 2 0.0 36.920142 2.513672 186.507795
17987   1 2 0.0 39.146569 -2.613005 185.731513
17988   1 2 0.0 41.647542 -2.969804 183.093110
17989   1 1 0.0 31.848167 5.215450 195.128605
17990   1 1 0.0 34.327142 -1.025515 192.391594
17991   1 1 0.0 33.193360 6.340192 191.547790
17992   1 1 0.0 32.933340 2.039657 192.343720
17993   1 2 0.0 32.754017 4.316283 194.083486
17994   1 2 0.0 33.549146 1.772906 190.693527
17995   1 2 0.0 36.053850 3.652479 188.097689
17996   1 2 0.0 33.415032 4.149724 191.516043
17997   1 2 0.0 31.378140 1.999593 194.075056
17998   1 2 0.0 32.309831 6.053654 193.606375
17999   1 2 0.0 33.379013 0.567613 192.830093
18000   1 2 0.0 35.744310 -0.319819 190.191690
18001   1 1 0.0 27.939351 9.785068 202.227185
18002   1 1 0.0 29.014991 3.156496 199.490174
18003   1 1 0.0 29.495339 10.593456 198.646370
18004   1 1 0.0 28.314562 6.450029 199.442300
18005   1 2 0.0 28.630121 8.711800 201.182066
18006   1 2 0.0 28.858405 6.056826 197.792107
18007   1 2 0.0 31.709337 7.352404 195.196269
18008   1 2 0.0 29.239703 8.406691 198.614623
18009   1 2 0.0 26.787277 6.746089 201.173636
18010   1 2 0.0 28.570818 10.504074 200.704955
18011   1 2 0.0 28.432501 4.916527 199.928673
18012   1 2 0.0 30.550948 3.540173 197.290270
18013   1 1 0.0 25.107259 15.089736 4.003889
18014   1 1 0.0 24.729005 8.385119 1.266878
18015   1 1 0.0 26.800906 15.543773 0.423074
18016   1 1 0.0 24.754872 11.752209 1.219004
18017   1 2 0.0 25.550480 13.892814 2.958770
18018   1 2 0.0 25.201189 11.251035 204.890687
18019   1 2 0.0 28.264349 11.901721 202.294849
18020   1 2 0.0 26.079978 13.463496 0.391327
18021   1 2 0.0 23.327289 12.370477 2.950340
18022   1 2 0.0 25.878849 15.655748 2.481659
18023   1 2 0.0 24.539533 10.229327 1.705377
18024   1 2 0.0 26.311557 8.428744 204.388850
18025   1 1 0.0 23.485007 20.880119 11.102469
18026   1 1 0.0 21.670639 14.414593 8.365458
18027   1 1 0.0 25.236707 20.958465 7.521654
18028   1 1 0.0 22.421585 17.696977 8.317584
18029   1 2 0.0 23.659847 19.615803 10.057350
18030   1 2 0.0 22.749399 17.111389 6.667391
18031   1 2 0.0 25.880808 17.086600 4.071553
18032   1 2 0.0 24.084373 19.082455 7.489907
18033   1 2 0.0 21.160804 18.608393 10.048920
18034   1 2 0.0 24.360452 21.266533 9.580239
18035   1 2 0.0 21.883090 16.256296 8.803957
18036   1 2 0.0 23.225400 14.116115 6.165554
18037   1 1 0.0 23.148846 26.884055 18.201049
18038   1 1 0.0 19.983643 20.961517 15.464038
18039   1 1 0.0 24.876264 26.583026 14.620234
18040   1 1 0.0 21.424373 24.004913 15.416164
18041   1 2 0.0 23.047086 25.611769 17.155930
18042   1 2 0.0 21.618275 23.362436 13.765971
18043   1 2 0.0 24.670748 22.663336 11.170133
18044   1 2 0.0 23.346686 24.999460 14.588487
18045   1 2 0.0 20.389653 25.166638 17.147500
18046   1 2 0.0 24.086998 27.072708 16.678819
18047   1 2 0.0 20.588032 22.714149 15.902537
18048   1 2 0.0 21.437536 20.334966 13.264134
18049   1 1 0.0 24.114576 32.819340 25.299629
18050   1 1 0.0 19.747312 27.718166 22.562618
18051   1 1 0.0 25.736518 32.153086 21.718814
18052   1 1 0.0 21.810107 30.379527 22.514744
18053   1 2 0.0 23.741000 31.598887 24.254510
18054   1 2 0.0 21.860982 29.710359 20.864551
18055   1 2 0.0 24.691046 28.369808 18.268713
18056   1 2 0.0 23.901592 30.936397 21.687067
18057   1 2 0.0 21.050084 31.736956 24.246080
18058   1 2 0.0 25.071339 32.801366 23.777399
18059   1 2 0.0 20.715231 29.299349 23.001117
18060   1 2 0.0 21.032000 26.792992 20.362714
18061   1 1 0.0 26.336804 38.407000 32.398209
18062   1 1 0.0 20.972753 34.366960 29.661198
18063   1 1 0.0 27.777035 37.406837 28.817394
18064   1 1 0.0 23.560656 36.521194 29.613324
18065   1 2 0.0 25.708971 37.295744 31.353090
18066   1 2 0.0 23.466114 35.856787 27.963131
18067   1 2 0.0 25.940747 33.937795 25.367293
18068   1 2 0.0 25.723007 36.614212 28.785647
18069   1 2 0.0 23.111053 38.010525 31.344660
18070   1 2 0.0 27.267209 38.183243 30.875979
18071   1 2 0.0 22.258707 35.702373 30.099697
18072   1 2 0.0 22.027852 33.186648 27.461294
18073   1 1 0.0 29.711081 43.384399 39.496789
18074   1 1 0.0 23.602368 40.595387 36.759778
18075   1 1 0.0 30.901905 42.097338 35.915974
18076   1 1 0.0 26.593740 42.141238 36.711904
18077   1 2 0.0 28.858501 42.434572 38.451670
18078   1 2 0.0 26.358225 41.512822 35.061711
18079   1 2 0.0 28.361112 39.105587 32.465873
18080   1 2 0.0 28.725320 41.766032 35.884227
18081   1 2 0.0 26.475689 43.692468 38.443240
18082   1 2 0.0 30.571395 42.965376 37.974559
18083   1 2 0.0 25.145913 41.622262 37.198277
18084   1 2 0.0 24.378285 39.215414 34.559874
18085   1 1 0.0 34.078805 47.517586 46.595369
18086   1 1 0.0 27.512557 46.110691 43.858358
18087   1 1 0.0 34.964251 46.004121 43.014554
18088   1 1 0.0 30.766795 46.975502 43.810484
18089   1 2 0.0 33.041551 46.773832 45.550250
18090   1 2 0.0 30.401376 46.412613 42.160291
18091   1 2 0.0 31.838376 43.630282 39.564453
18092   1 2 0.0 32.767414 46.149707 42.982807
18093   1 2 0.0 30.985846 48.515718 45.541820
18094   1 2 0.0 34.828591 46.922993 45.073139
18095   1 2 0.0 29.241143 46.780763 44.296857
18096   1 2 0.0 27.972822 44.595922 41.658454
18097   1 1 0.0 35.737152 63.112245 58.109387
18098   1 1 0.0 32.970134 61.813342 50.038479
18099   1 1 0.0 34.950430 62.001551 55.213402
18100   1 1 0.0 35.718710 62.737864 51.150670
18101   1 2 0.0 33.336997 62.347132 57.713180
18102   1 2 0.0 35.308072 62.443128 49.045116
18103   1 2 0.0 28.118561 59.066834 53.248178
18104   1 2 0.0 34.451382 62.036682 53.264655
18105   1 2 0.0 38.983998 63.873384 50.828711
18106   1 2 0.0 35.940004 62.753579 56.836535
18107   1 2 0.0 34.495006 62.429770 51.154659
18108   1 2 0.0 30.216322 60.421153 50.038784
18109   1 1 0.0 44.215074 65.483038 65.207967
18110   1 1 0.0 41.233141 64.811019 57.137059
18111   1 1 0.0 43.207460 64.568005 62.311982
18112   1 1 0.0 44.116378 65.121430 58.249250
18113   1 2 0.0 41.706426 65.253196 64.811760
18114   1 2 0.0 43.651868 64.922123 56.143696
18115   1 2 0.0 35.903649 63.174687 60.346758
18116   1 2 0.0 42.727712 64.709866 60.363235
18117   1 2 0.0 47.549658 65.526517 57.927291
18118   1 2 0.0 44.335858 65.089082 63.935115
18119   1 2 0.0 42.855031 65.084314 58.253239
18120   1 2 0.0 38.243997 64.045060 57.137364
18121   1 1 0.0 53.004716 65.970920 72.306547
18122   1 1 0.0 49.948026 65.957372 64.235639
18123   1 1 0.0 51.823571 65.294556 69.410562
18124   1 1 0.0 52.830404 65.639082 65.347830
18125   1 2 0.0 50.505488 66.287154 71.910340
18126   1 2 0.0 52.333855 65.544572 63.242276
18127   1 2 0.0 44.391116 65.508129 67.445338
18128   1 2 0.0 51.385672 65.536481 67.461815
18129   1 2 0.0 56.270303 65.294695 65.025871
18130   1 2 0.0 53.037754 65.560191 71.033695
18131   1 2 0.0 51.590701 65.874689 65.351819
18132   1 2 0.0 46.864049 65.853646 64.235944
18133   1 1 0.0 61.692939 64.552960 79.405127
18134   1 1 0.0 58.705165 65.198519 71.334219
18135   1 1 0.0 60.393780 64.147056 76.509142
18136   1 1 0.0 61.451205 64.266489 72.446410
18137   1 2 0.0 59.320602 65.400404 79.008920
18138   1 2 0.0 60.945956 64.281218 70.340856
18139   1 2 0.0 53.182028 65.957480 74.543918
18140   1 2 0.0 60.018313 64.477673 74.560395
18141   1 2 0.0 64.736038 63.188816 72.124451
18142   1 2 0.0 61.636678 64.144763 78.132275
18143   1 2 0.0 60.291416 64.763744 72.450399
18144   1 2 0.0 55.671311 65.761901 71.334524
18145   1 1 0.0 69.871372 61.295806 86.503707
18146   1 1 0.0 67.092949 62.570129 78.432799
18147   1 1 0.0 68.515263 61.179441 83.607722
18148   1 1 0.0 69.573578 61.068166 79.544990
18149   1 2 0.0 67.737433 62.634628 86.107500
18150   1 2 0.0 69.083377 61.191442 77.439436
18151   1 2 0.0 61.863188 64.501621 81.642498
18152   1 2 0.0 68.219876 61.583210 81.658975
18153   1 2 0.0 72.548949 59.307860 79.223031
18154   1 2 0.0 69.728458 60.909327 85.230855
18155   1 2 0.0 68.548216 61.803697 79.548979
18156   1 2 0.0 64.251817 63.774139 78.433104
18157   1 1 0.0 77.155607 56.352552 93.602287
18158   1 1 0.0 74.717127 58.195744 85.531379
18159   1 1 0.0 75.806289 56.531196 90.706302
18160   1 1 0.0 76.815749 56.194444 86.643570
18161   1 2 0.0 75.360367 58.119825 93.206080
18162   1 2 0.0 76.363638 56.420473 84.538016
18163   1 2 0.0 70.026555 61.208980 88.741078
18164   1 2 0.0 75.604865 56.989138 88.757555
18165   1 2 0.0 79.341807 53.834245 86.321611
18166   1 2 0.0 76.932756 56.005958 92.329435
18167   1 2 0.0 75.973009 57.133679 86.647559
18168   1 2 0.0 72.202258 59.983789 85.531684
18169   1 1 0.0 83.203263 49.955546 100.700867
18170   1 1 0.0 81.219343 52.280970 92.629959
18171   1 1 0.0 81.924158 50.420801 97.804882
18172   1 1 0.0 82.837317 49.874402 93.742150
18173   1 2 0.0 81.831103 52.068203 100.304660
18174   1 2 0.0 82.444545 50.192559 91.636596
18175   1 2 0.0 77.288430 56.234322 95.839658
18176   1 2 0.0 81.826166 50.911393 95.856135
18177   1 2 0.0 84.795330 47.025245 93.420191
18178   1 2 0.0 82.910950 49.665127 99.428015
18179   1 2 0.0 82.216809 50.973194 93.746139
18180   1 2 0.0 79.148943 54.569008 92.630264
18181   1 1 0.0 87.730084 42.405466 107.799447
18182   1 1 0.0 86.293973 45.103821 99.728539
18183   1 1 0.0 86.581313 43.135464 104.903462
18184   1 1 0.0 87.355250 42.405098 100.840730
18185   1 2 0.0 86.845499 44.764205 107.403240
18186   1 2 0.0 87.040279 42.800430 98.735176
18187   1 2 0.0 83.307483 49.811468 102.938238
18188   1 2 0.0 86.591358 43.635646 102.954715
18189   1 2 0.0 88.653185 39.200902 100.518771
18190   1 2 0.0 87.382049 42.184872 106.526595
18191   1 2 0.0 86.986141 43.611801 100.844719
18192   1 2 0.0 84.765357 47.784307 99.728844
18193   1 1 0.0 90.523297 34.057185 114.898027
18194   1 1 0.0 89.702496 37.001641 106.827119
18195   1 1 0.0 89.558856 35.017615 112.002042
18196   1 1 0.0 90.157192 34.137612 107.939310
18197   1 2 0.0 90.167865 36.551139 114.501820
18198   1 2 0.0 89.934827 34.591536 105.833756
18199   1 2 0.0 87.800802 42.242311 110.036818
18200   1 2 0.0 89.676466 35.503877 110.053295
18201   1 2 0.0 90.734044 30.728983 107.617351
18202   1 2 0.0 90.135898 33.916785 113.625175
18203   1 2 0.0 90.056831 35.395507 107.943299
18204   1 2 0.0 88.787513 39.948585 106.827424
18205   1 1 0.0 91.451612 25.303097 121.996607
18206   1 1 0.0 91.284702 28.355256 113.925699
18207   1 1 0.0 90.716832 26.448815 119.100622
18208   1 1 0.0 91.111445 25.460537 115.037890
18209   1 2 0.0 91.642041 27.815044 121.600400
18210   1 2 0.0 90.992138 25.951719 112.932336
18211   1 2 0.0 90.557190 33.882623 117.135398
18212   1 2 0.0 90.936480 26.898302 117.151875
18213   1 2 0.0 90.940100 22.007691 114.715931
18214   1 2 0.0 91.043058 25.249490 120.723755
18215   1 2 0.0 91.284549 26.710501 115.041879
18216   1 2 0.0 91.026358 31.430143 113.926004
18217   1 1 0.0 90.471397 16.554668 129.095187
18218   1 1 0.0 90.966222 19.571070 121.024279
18219   1 1 0.0 90.000815 17.831823 126.199202
18220   1 1 0.0 90.173157 16.781723 122.136470
18221   1 2 0.0 91.198734 18.966539 128.698980
18222   1 2 0.0 90.162515 17.287074 120.030916
18223   1 2 0.0 91.447086 25.125333 124.233978
18224   1 2 0.0 90.312175 18.223406 124.250455
18225   1 2 0.0 89.261668 13.446952 121.814511
18226   1 2 0.0 90.060891 16.590375 127.822335
18227   1 2 0.0 90.611589 17.965002 122.140459
18228   1 2 0.0 91.376661 22.629372 121.024584
18229   1 1 0.0 87.628724 8.223099 136.193767
18230   1 1 0.0 88.762026 11.061965 128.122859
18231   1 1 0.0 87.444459 9.571660 133.297782
18232   1 1 0.0 87.386429 8.509095 129.235050
18233   1 2 0.0 88.858783 10.421529 135.797560
18234   1 2 0.0 87.484952 9.004864 127.129496
18235   1 2 0.0 90.428665 16.382057 131.332558
18236   1 2 0.0 87.832897 9.886936 131.349035
18237   1 2 0.0 85.777639 5.449144 128.913091
18238   1 2 0.0 87.235561 8.346440 134.920915
18239   1 2 0.0 88.069582 9.570074 129.239039
18240   1 2 0.0 89.821956 13.959933 128.123164
18241   1 1 0.0 83.057207 0.699997 143.292347
18242   1 1 0.0 84.775718 3.227893 135.221439
18243   1 1 0.0 83.167919 2.056579 140.396362
18244   1 1 0.0 82.882245 1.031493 136.333630
18245   1 2 0.0 84.732172 2.581654 142.896140
18246   1 2 0.0 83.085302 1.494376 134.228076
18247   1 2 0.0 87.549795 8.063755 138.431138
18248   1 2 0.0 83.615178 2.280728 138.447615
18249   1 2 0.0 80.651771 -1.609813 136.011671
18250   1 2 0.0 82.699867 0.905176 142.019495
18251   1 2 0.0 83.778009 1.920301 136.337619
18252   1 2 0.0 86.435319 5.829314 135.221744
18253   1 1 0.0 76.971719 -5.661030 150.390927
18254   1 1 0.0 79.194665 -3.562924 142.320019
18255   1 1 0.0 77.372205 -4.360191 147.494942
18256   1 1 0.0 76.872314 -5.299617 143.432210
18257   1 2 0.0 79.012862 -4.184590 149.994720
18258   1 2 0.0 77.170362 -4.891376 141.326656
18259   1 2 0.0 82.945790 0.561409 145.529718
18260   1 2 0.0 77.857262 -4.237705 145.546195
18261   1 2 0.0 74.124996 -7.398128 143.110251
18262   1 2 0.0 76.666998 -5.383658 149.118075
18263   1 2 0.0 77.938586 -4.624756 143.436199
18264   1 2 0.0 81.375931 -1.380323 142.320324
18265   1 1 0.0 69.658297 -10.560998 157.489507
18266   1 1 0.0 72.281192 -8.991298 149.418599
18267   1 1 0.0 70.329733 -9.377044 154.593522
18268   1 1 0.0 69.639121 -10.186654 150.530790
18269   1 2 0.0 71.969678 -9.559170 157.093300
18270   1 2 0.0 70.018150 -9.852243 148.425236
18271   1 2 0.0 76.833052 -5.772349 152.628298
18272   1 2 0.0 70.829789 -9.361978 152.644775
18273   1 2 0.0 66.504090 -11.643735 150.208831
18274   1 2 0.0 69.420517 -10.224470 156.216655
18275   1 2 0.0 70.825783 -9.757460 150.534779
18276   1 2 0.0 74.881598 -7.330105 149.418904
18277   1 1 0.0 61.460691 -13.769593 164.588087
18278   1 1 0.0 64.360251 -12.802079 156.517179
18279   1 1 0.0 62.371517 -12.758174 161.692102
18280   1 1 0.0 61.522646 -13.399914 157.629370
18281   1 2 0.0 63.933669 -13.289467 164.191880
18282   1 2 0.0 61.964840 -13.155052 155.523816
18283   1 2 0.0 69.498897 -10.639814 159.726878
18284   1 2 0.0 62.863068 -12.851236 159.743355
18285   1 2 0.0 58.147256 -14.147078 157.307411
18286   1 2 0.0 61.301029 -13.389727 163.315235
18287   1 2 0.0 62.773921 -13.236560 157.633359
18288   1 2 0.0 67.257571 -11.740376 156.517484
18289   1 1 0.0 52.764211 -15.136003 171.686667
18290   1 1 0.0 55.804151 -14.816151 163.615759
18291   1 1 0.0 53.871616 -14.344658 168.790682
18292   1 1 0.0 52.904385 -14.788364 164.727950
18293   1 2 0.0 55.282549 -15.200146 171.290460
18294   1 2 0.0 53.388961 -14.644561 162.622396
18295   1 2 0.0 61.288050 -13.812202 166.825458
18296   1 2 0.0 54.331558 -14.541474 166.841935
18297   1 2 0.0 49.447290 -14.790492 164.405991
18298   1 2 0.0 52.690172 -14.730653 170.413815
18299   1 2 0.0 54.161460 -14.898529 164.731939
18300   1 2 0.0 58.862201 -14.403841 163.616064
18301   1 1 0.0 43.977618 -14.596002 178.785247
18302   1 1 0.0 47.015050 -14.938846 170.714339
18303   1 1 0.0 45.229551 -14.061928 175.889262
18304   1 1 0.0 44.189421 -14.286744 171.826530
18305   1 2 0.0 46.422947 -15.201400 178.389040
18306   1 2 0.0 44.693602 -14.250758 169.720976
18307   1 2 0.0 52.586444 -15.140402 173.924038
18308   1 2 0.0 45.636265 -14.353246 173.940515
18309   1 2 0.0 40.813115 -13.543736 171.504571
18310   1 2 0.0 43.992681 -14.184221 177.512395
18311   1 2 0.0 45.393210 -14.665250 171.830519
18312   1 2 0.0 50.090094 -15.195309 170.714644
18313   1 1 0.0 35.513904 -12.174972 185.883827
18314   1 1 0.0 38.406061 -13.164398 177.812919
18315   1 1 0.0 36.851521 -11.923271 182.987842
18316   1 1 0.0 35.787383 -11.918631 178.925110
18317   1 2 0.0 37.771287 -13.293169 185.487620
18318   1 2 0.0 36.287470 -11.992154 176.819556
18319   1 2 0.0 43.803080 -14.561985 181.022618
18320   1 2 0.0 37.185890 -12.295400 181.039095
18321   1 2 0.0 32.650560 -10.465411 178.603151
18322   1 2 0.0 35.617362 -11.776116 184.610975
18323   1 2 0.0 36.881304 -12.547686 178.929099
18324   1 2 0.0 41.353564 -14.077578 177.813224
18325   1 1 0.0 27.770889 -7.986709 192.982407
18326   1 1 0.0 30.381832 -9.576210 184.911499
18327   1 1 0.0 29.131318 -8.029211 190.086422
18328   1 1 0.0 28.093188 -7.795333 186.023690
18329   1 2 0.0 29.734223 -9.565146 192.586200
18330   1 2 0.0 28.565677 -7.974909 183.918136
18331   1 2 0.0 35.350800 -12.104138 188.121198
18332   1 2 0.0 29.377626 -8.464659 188.137675
18333   1 2 0.0 25.343289 -5.700206 185.701731
18334   1 2 0.0 27.957879 -7.619523 191.709555
18335   1 2 0.0 29.025824 -8.645371 186.027679
18336   1 2 0.0 33.063252 -11.103186 184.911804
18337   1 1 0.0 21.112516 -2.228072 200.080987
18338   1 1 0.0 23.319523 -4.342938 192.010079
18339   1 1 0.0 22.431813 -2.562780 197.185002
18340   1 1 0.0 21.468487 -2.110657 193.122270
18341   1 2 0.0 22.689518 -4.192558 199.684780
18342   1 2 0.0 21.891169 -2.387845 191.016716
18343   1 2 0.0 27.626885 -7.882387 195.219778
18344   1 2 0.0 22.578483 -3.041079 195.236255
18345   1 2 0.0 19.234763 0.527901 192.800311
18346   1 2 0.0 21.374249 -1.909817 198.808135
18347   1 2 0.0 22.196001 -3.141723 193.126259
18348   1 2 0.0 25.608826 -6.411938 192.010384
18349   1 1 0.0 15.851748 4.830267 1.857691
18350   1 1 0.0 17.551083 2.289440 199.108659
18351   1 1 0.0 17.067901 4.219085 204.283582
18352   1 1 0.0 16.224658 4.868202 200.220850
18353   1 2 0.0 16.968294 2.572067 1.461484
18354   1 2 0.0 16.577666 4.506431 198.115296
18355   1 2 0.0 20.994380 -2.095165 202.318358
18356   1 2 0.0 17.108040 3.720415 202.334835
18357   1 2 0.0 14.612102 7.926171 199.898891
18358   1 2 0.0 16.175921 5.084633 0.584839
18359   1 2 0.0 16.712856 3.704571 200.224839
18360   1 2 0.0 19.340666 -0.224334 199.108964
18361   1 1 0.0 12.235854 12.856545 8.956271
18362   1 1 0.0 13.347644 10.009185 0.885363
18363   1 1 0.0 13.291702 11.997617 6.060286
18364   1 1 0.0 12.608176 12.813218 1.997554
18365   1 2 0.0 12.839464 10.410774 8.560064
18366   1 2 0.0 12.874918 12.383867 205.213876
18367   1 2 0.0 15.765033 4.985511 4.095062
18368   1 2 0.0 13.223422 11.502016 4.111539
18369   1 2 0.0 11.692583 16.146864 1.675595
18370   1 2 0.0 12.607230 13.035066 7.683419
18371   1 2 0.0 12.834111 11.571716 2.001543
18372   1 2 0.0 14.553391 7.168790 0.885668
18373   1 1 0.0 10.434793 21.473505 16.054851
18374   1 1 0.0 10.906780 18.453445 7.983943
18375   1 1 0.0 11.280708 20.407203 13.158866
18376   1 1 0.0 10.789027 21.350952 9.096134
18377   1 2 0.0 10.497095 18.955121 15.658644
18378   1 2 0.0 10.956964 20.874202 6.990580
18379   1 2 0.0 12.184636 13.026830 11.193642
18380   1 2 0.0 11.107219 19.937965 11.210119
18381   1 2 0.0 10.613431 24.803585 8.774175
18382   1 2 0.0 10.835917 21.567791 14.781999
18383   1 2 0.0 10.742078 20.089933 9.100123
18384   1 2 0.0 11.472018 15.419936 7.984248
18385   1 1 0.0 10.533219 30.276127 23.153431
18386   1 1 0.0 10.343219 27.225317 15.082523
18387   1 1 0.0 11.129440 29.052569 20.257446
18388   1 1 0.0 10.852715 30.080108 16.194714
18389   1 2 0.0 10.051285 27.803500 22.757224
18390   1 2 0.0 10.913954 29.578368 14.089160
18391   1 2 0.0 10.421479 21.650827 18.292222
18392   1 2 0.0 10.858896 28.631750 18.308699
18393   1 2 0.0 11.425370 33.489444 15.872755
18394   1 2 0.0 10.945236 30.281745 21.880579
18395   1 2 0.0 10.535090 28.858843 16.198703
18396   1 2 0.0 10.241379 24.141278 15.082828
18397   1 1 0.0 12.526505 38.850661 30.252011
18398   1 1 0.0 11.683449 35.912500 22.181103
18399   1 1 0.0 12.845009 37.527359 27.356026
18400   1 1 0.0 12.796246 38.590390 23.293294
18401   1 2 0.0 11.522988 36.540013 29.855804
18402   1 2 0.0 12.747910 38.087243 21.187740
18403   1 2 0.0 10.558434 30.452151 25.390802
18404   1 2 0.0 12.490127 37.174738 25.407279
18405   1 2 0.0 14.090236 41.796181 22.971335
18406   1 2 0.0 12.930051 38.767347 28.979159
18407   1 2 0.0 12.222874 37.466282 23.297283
18408   1 2 0.0 10.919319 32.922888 22.181408
18409   1 1 0.0 16.320963 46.794081 37.350591
18410   1 1 0.0 14.864476 44.106669 29.279683
18411   1 1 0.0 16.346778 45.433234 34.454606
18412   1 1 0.0 16.528269 46.481791 30.391874
18413   1 2 0.0 14.843030 44.754018 36.954384
18414   1 2 0.0 16.372629 46.000886 28.286320
18415   1 2 0.0 12.589066 39.017114 32.489382
18416   1 2 0.0 15.924238 45.165385 32.505859
18417   1 2 0.0 18.482773 49.333356 30.069915
18418   1 2 0.0 16.697068 46.625752 36.077739
18419   1 2 0.0 15.726101 45.507676 30.395863
18420   1 2 0.0 13.473972 41.352006 29.279988
18421   1 1 0.0 21.738241 53.733024 44.449171
18422   1 1 0.0 19.736782 51.422677 36.378263
18423   1 1 0.0 21.470154 52.398594 41.553186
18424   1 1 0.0 21.873370 53.383393 37.490454
18425   1 2 0.0 19.855360 52.059435 44.052964
18426   1 2 0.0 21.617741 52.947335 35.384900
18427   1 2 0.0 16.417928 46.943139 39.587962
18428   1 2 0.0 20.999817 52.228108 39.604439
18429   1 2 0.0 24.396520 55.746701 37.168495
18430   1 2 0.0 22.069228 53.487591 43.176319
18431   1 2 0.0 20.880108 52.605058 37.494443
18432   1 2 0.0 17.785262 49.032439 36.378568
18433   1 1 0.0 28.523712 59.341339 51.547751
18434   1 1 0.0 26.071356 57.516651 43.476843
18435   1 1 0.0 27.974325 58.096050 48.651766
18436   1 1 0.0 28.580312 58.970803 44.589034
18437   1 2 0.0 26.324384 58.112888 51.151544
18438   1 2 0.0 28.236709 58.600086 42.483480
18439   1 2 0.0 21.865052 53.857680 46.686542
18440   1 2 0.0 27.478297 58.030940 46.703019
18441   1 2 0.0 31.553513 60.734770 44.267075
18442   1 2 0.0 28.794025 59.030339 50.274899
18443   1 2 0.0 27.442644 58.424831 44.593023
18444   1 2 0.0 23.650546 55.603186 43.477148
18445   1 1 0.0 32.084816 60.083051 60.761412
18446   1 1 0.0 27.435532 58.367920 54.852744
18447   1 1 0.0 31.984611 58.470308 57.369601
18448   1 1 0.0 30.822038 59.286174 55.214271
18449   1 2 0.0 29.952811 59.259741 60.243794
18450   1 2 0.0 30.430984 58.729016 53.206915
18451   1 2 0.0 25.847450 55.444377 55.203166
18452   1 2 0.0 30.830564 58.505093 56.132313
18453   1 2 0.0 32.963820 60.716428 55.785380
18454   1 2 0.0 32.579421 59.475978 59.246064
18455   1 2 0.0 29.268091 59.064951 55.574089
18456   1 2 0.0 25.891232 56.741890 53.894615
18457   1 1 0.0 39.995710 63.312199 67.859992
18458   1 1 0.0 35.086039 62.639408 61.951324
18459   1 1 0.0 39.550276 61.758955 64.468181
18460   1 1 0.0 38.590864 62.806208 62.312851
18461   1 2 0.0 37.736367 62.967736 67.342374
18462   1 2 0.0 38.088919 62.346426 60.305495
18463   1 2 0.0 32.905187 60.126842 62.301746
18464   1 2 0.0 38.430847 62.041647 63.230893
18465   1 2 0.0 40.990565 63.741245 62.883960
18466   1 2 0.0 40.347853 62.612794 66.344644
18467   1 2 0.0 37.025758 62.925098 62.672669
18468   1 2 0.0 33.227585 61.384425 60.993195
18469   1 1 0.0 48.416645 64.760472 74.958572
18470   1 1 0.0 43.477356 65.161643 69.049904
18471   1 1 0.0 47.646918 63.339733 71.566761
18472   1 1 0.0 46.935762 64.569151 69.411431
18473   1 2 0.0 46.136160 64.911047 74.440954
18474   1 2 0.0 46.346519 64.228355 67.404075
18475   1 2 0.0 40.806239 63.178152 69.400326
18476   1 2 0.0 46.614725 63.857045 70.329473
18477   1 2 0.0 49.480589 64.965021 69.982540
18478   1 2 0.0 48.609774 64.001609 73.443224
18479   1 2 0.0 45.433062 65.022564 69.771249
18480   1 2 0.0 41.392099 64.336695 68.091775
18481   1 1 0.0 56.951814 64.359797 82.057152
18482   1 1 0.0 52.215067 65.816075 76.148484
18483   1 1 0.0 55.893973 63.138342 78.665341
18484   1 1 0.0 55.464499 64.492138 76.510011
18485   1 2 0.0 54.757376 64.998332 81.539534
18486   1 2 0.0 54.815655 64.286348 74.502655
18487   1 2 0.0 49.179236 64.454887 76.498906
18488   1 2 0.0 54.997531 63.865959 77.428053
18489   1 2 0.0 58.034839 64.330233 77.081120
18490   1 2 0.0 56.976851 63.577145 80.541804
18491   1 2 0.0 54.094836 65.258763 76.869829
18492   1 2 0.0 50.001021 65.459936 75.190355
18493   1 1 0.0 65.200039 62.129008 89.155732
18494   1 1 0.0 60.888475 64.571942 83.247064
18495   1 1 0.0 63.903807 61.164248 85.763921
18496   1 1 0.0 63.776201 62.578790 83.608591
18497   1 2 0.0 63.194793 63.225489 88.638114
18498   1 2 0.0 63.098253 62.517677 81.601235
18499   1 2 0.0 57.630622 63.897037 83.597486
18500   1 2 0.0 63.185251 62.067969 84.526633
18501   1 2 0.0 66.251240 61.866721 84.179700
18502   1 2 0.0 65.055808 61.359352 87.640384
18503   1 2 0.0 62.603952 63.622593 83.968409
18504   1 2 0.0 58.649706 64.701353 82.288935
18505   1 1 0.0 72.773632 58.172956 96.254312
18506   1 1 0.0 69.089905 61.487722 90.345644
18507   1 1 0.0 71.299934 57.510238 92.862501
18508   1 1 0.0 71.480194 58.919038 90.707171
18509   1 2 0.0 71.051829 59.675847 95.736694
18510   1 2 0.0 70.805008 59.005476 88.699815
18511   1 2 0.0 65.763158 61.530824 90.696066
18512   1 2 0.0 70.793038 58.547587 91.625213
18513   1 2 0.0 73.743598 57.690274 91.278280
18514   1 2 0.0 72.466911 57.452474 94.738964
18515   1 2 0.0 70.560459 60.190958 91.066989
18516   1 2 0.0 66.931641 62.096600 89.387515
18517   1 1 0.0 79.316611 52.677588 103.352892
18518   1 1 0.0 76.433868 56.708383 97.444224
18519   1 1 0.0 77.734715 52.348062 99.961081
18520   1 1 0.0 78.214369 53.684903 97.805751
18521   1 2 0.0 77.959182 54.516248 102.835274
18522   1 2 0.0 77.573680 53.914827 95.798395
18523   1 2 0.0 73.194594 57.467465 97.794646
18524   1 2 0.0 77.463306 53.470279 98.723793
18525   1 2 0.0 80.159752 51.997199 98.376860
18526   1 2 0.0 78.861817 52.040144 101.837544
18527   1 2 0.0 77.590378 55.125155 98.165569
18528   1 2 0.0 74.457554 57.768108 96.486095
18529   1 1 0.0 84.521438 45.901201 110.451472
18530   1 1 0.0 82.575176 50.458566 104.542804
18531   1 1 0.0 82.905699 45.920356 107.059661
18532   1 1 0.0 83.662201 47.122402 104.904331
18533   1 2 0.0 83.592186 47.989209 109.933854
18534   1 2 0.0 83.086123 47.485007 102.896975
18535   1 2 0.0 79.575629 51.897949 104.893226
18536   1 2 0.0 82.882533 47.074694 105.822373
18537   1 2 0.0 85.198125 45.055086 105.475440
18538   1 2 0.0 83.939949 45.376757 108.936124
18539   1 2 0.0 83.363284 48.663291 105.264149
18540   1 2 0.0 80.873704 51.919329 103.584675
18541   1 1 0.0 88.143473 38.162305 117.550052
18542   1 1 0.0 87.225171 43.032032 111.641384
18543   1 1 0.0 86.569834 38.529239 114.158241
18544   1 1 0.0 87.567627 39.539992 112.002911
18545   1 2 0.0 87.686074 40.401517 117.032434
18546   1 2 0.0 87.083237 40.018234 109.995555
18547   1 2 0.0 84.606339 45.084061 111.991806
18548   1 2 0.0 86.795999 39.661443 112.920953
18549   1 2 0.0 88.621898 37.190232 112.574020
18550   1 2 0.0 87.462619 37.775511 116.034704
18551   1 2 0.0 87.607833 41.109092 112.362729
18552   1 2 0.0 85.878515 44.825172 110.683255
18553   1 1 0.0 90.012468 29.824649 124.648632
18554   1 1 0.0 90.165290 34.777846 118.739964
18555   1 1 0.0 88.554895 30.522117 121.256821
18556   1 1 0.0 89.747080 31.294067 119.101491
18557   1 2 0.0 90.048423 32.109817 124.131014
18558   1 2 0.0 89.377147 31.865467 117.094135
18559   1 2 0.0 88.050265 37.346070 119.090386
18560   1 2 0.0 89.019762 31.578968 120.019533
18561   1 2 0.0 90.270146 28.772310 119.672600
18562   1 2 0.0 89.264252 29.593686 123.133284
18563   1 2 0.0 90.124519 32.817626 119.461309
18564   1 2 0.0 89.236747 36.819082 117.781835
18565   1 1 0.0 90.040577 21.280127 131.747212
18566   1 1 0.0 91.257339 26.083981 125.838544
18567   1 1 0.0 88.767580 22.275345 128.355401
18568   1 1 0.0 90.098120 22.772210 126.200071
18569   1 2 0.0 90.568195 23.503842 131.229594
18570   1 2 0.0 89.860031 23.409910 124.192715
18571   1 2 0.0 89.745533 29.047686 126.188966
18572   1 2 0.0 89.449298 23.207168 127.118113
18573   1 2 0.0 90.065394 20.196984 126.771180
18574   1 2 0.0 89.260167 21.215850 130.231864
18575   1 2 0.0 90.795052 24.178615 126.559889
18576   1 2 0.0 90.790552 28.277368 124.880415
18577   1 1 0.0 88.226478 12.930356 138.845792
18578   1 1 0.0 90.449988 17.359071 132.937124
18579   1 1 0.0 87.197891 14.176545 135.453981
18580   1 1 0.0 88.604248 14.374970 133.298651
18581   1 2 0.0 89.220959 14.988095 138.328174
18582   1 2 0.0 88.509193 15.048997 131.291295
18583   1 2 0.0 89.612461 20.578955 133.287546
18584   1 2 0.0 88.064418 14.939543 134.216693
18585   1 2 0.0 88.017268 11.867319 133.869760
18586   1 2 0.0 87.450555 13.035786 137.330444
18587   1 2 0.0 89.587914 15.598118 133.658469
18588   1 2 0.0 90.466899 19.601513 131.978995
18589   1 1 0.0 84.655438 5.167797 145.944372
18590   1 1 0.0 87.781186 9.013211 140.035704
18591   1 1 0.0 83.919608 6.606384 142.552561
18592   1 1 0.0 85.335678 6.497042 140.397231
18593   1 2 0.0 86.070039 6.962842 145.426754
18594   1 2 0.0 85.388127 7.175715 138.389875
18595   1 2 0.0 87.657304 12.337930 140.386126
18596   1 2 0.0 84.930214 7.164693 141.315273
18597   1 2 0.0 84.222036 4.174832 140.968340
18598   1 2 0.0 83.920473 5.437979 144.429024
18599   1 2 0.0 86.559845 7.479441 140.757049
18600   1 2 0.0 88.280999 11.199309 139.077575
18601   1 1 0.0 79.495307 -1.642687 153.042952
18602   1 1 0.0 83.376374 1.438682 147.134284
18603   1 1 0.0 79.086820 -0.079320 149.651141
18604   1 1 0.0 80.446045 -0.491289 147.495811
18605   1 2 0.0 81.263538 -0.194708 152.525334
18606   1 2 0.0 80.643531 0.160130 145.488455
18607   1 2 0.0 83.971959 4.711965 147.484706
18608   1 2 0.0 80.194004 0.248058 148.413853
18609   1 2 0.0 78.858083 -2.518907 148.066920
18610   1 2 0.0 78.835845 -1.220452 151.527604
18611   1 2 0.0 81.853172 0.204185 147.855629
18612   1 2 0.0 84.335596 3.465681 146.176155
18613   1 1 0.0 72.988625 -7.180985 160.141532
18614   1 1 0.0 77.442590 -5.008494 154.232864
18615   1 1 0.0 72.926680 -5.566320 156.749721
18616   1 1 0.0 74.165173 -6.261552 154.594391
18617   1 2 0.0 75.027374 -6.148131 159.623914
18618   1 2 0.0 74.498414 -5.668005 152.587035
18619   1 2 0.0 78.729648 -1.940500 154.583286
18620   1 2 0.0 74.078403 -5.485260 155.512433
18621   1 2 0.0 72.177530 -7.899275 155.165500
18622   1 2 0.0 72.435663 -6.626543 158.626184
18623   1 2 0.0 75.689122 -5.885693 154.954209
18624   1 2 0.0 78.816136 -3.235867 153.274735
18625   1 1 0.0 65.441224 -11.186779 167.240112
18626   1 1 0.0 70.258738 -10.025281 161.331444
18627   1 1 0.0 65.728735 -9.596711 163.848301
18628   1 1 0.0 66.788281 -10.542529 161.692971
18629   1 2 0.0 67.654665 -10.617598 166.722494
18630   1 2 0.0 67.241615 -10.034753 159.685615
18631   1 2 0.0 72.176774 -7.306781 161.681866
18632   1 2 0.0 66.870860 -9.765780 162.611013
18633   1 2 0.0 64.494383 -11.713379 162.264080
18634   1 2 0.0 65.020754 -10.526192 165.724764
18635   1 2 0.0 68.357422 -10.503950 162.052789
18636   1 2 0.0 71.982047 -8.590345 160.373315
18637   1 1 0.0 57.207855 -13.471789 174.338692
18638   1 1 0.0 62.162480 -13.375875 168.430024
18639   1 1 0.0 57.831305 -11.981054 170.946881
18640   1 1 0.0 58.662105 -13.133002 168.791551
18641   1 2 0.0 59.491948 -13.393033 173.821074
18642   1 2 0.0 59.214222 -12.734863 166.784195
18643   1 2 0.0 64.621341 -11.134646 168.780446
18644   1 2 0.0 58.910151 -12.392305 169.709593
18645   1 2 0.0 56.169770 -13.781946 169.362660
18646   1 2 0.0 56.939638 -12.736104 172.823344
18647   1 2 0.0 60.202683 -13.433516 169.151369
18648   1 2 0.0 64.154552 -12.346077 167.471895
18649   1 1 0.0 48.675507 -13.928610 181.437272
18650   1 1 0.0 53.534363 -14.902790 175.528604
18651   1 1 0.0 49.605594 -12.607278 178.045461
18652   1 1 0.0 50.168597 -13.911211 175.890131
18653   1 2 0.0 50.922895 -14.343981 180.919654
18654   1 2 0.0 50.793547 -13.641423 173.882775
18655   1 2 0.0 56.418476 -13.244176 175.879026
18656   1 2 0.0 50.570451 -13.241381 176.808173
18657   1 2 0.0 47.594973 -14.007746 176.461240
18658   1 2 0.0 48.572151 -13.152408 179.921924
18659   1 2 0.0 51.608201 -14.536694 176.249949
18660   1 2 0.0 55.701565 -14.326532 174.570475
18661   1 1 0.0 40.245225 -12.535772 188.535852
18662   1 1 0.0 44.779933 -14.534257 182.627184
18663   1 1 0.0 41.438233 -11.445949 185.144041
18664   1 1 0.0 41.706975 -12.840578 182.988711
18665   1 2 0.0 42.350274 -13.425746 188.018234
18666   1 2 0.0 42.375384 -12.711822 180.981355
18667   1 2 0.0 47.953735 -13.536217 182.977606
18668   1 2 0.0 42.243750 -12.273099 183.906753
18669   1 2 0.0 39.173030 -12.380167 183.559820
18670   1 2 0.0 40.311588 -11.755536 187.020504
18671   1 2 0.0 42.977941 -13.761630 183.348529
18672   1 2 0.0 47.020399 -14.438624 181.669055
18673   1 1 0.0 32.313257 -9.358741 195.634432
18674   1 1 0.0 36.310672 -12.287596 189.725764
18675   1 1 0.0 33.713110 -8.551652 192.242621
18676   1 1 0.0 33.674961 -9.971426 190.087291
18677   1 2 0.0 34.177023 -10.681488 195.116814
18678   1 2 0.0 34.355411 -9.989754 188.079935
18679   1 2 0.0 39.624986 -11.997041 190.076186
18680   1 2 0.0 34.321426 -9.532971 191.005333
18681   1 2 0.0 31.299796 -8.975710 190.658400
18682   1 2 0.0 32.546220 -8.611145 194.119084
18683   1 2 0.0 34.717548 -11.144755 190.447109
18684   1 2 0.0 38.519095 -12.677085 188.767635
18685   1 1 0.0 25.252426 -4.546847 202.733012
18686   1 1 0.0 28.524658 -8.268408 196.824344
18687   1 1 0.0 26.793328 -4.060428 199.341201
18688   1 1 0.0 26.450080 -5.438613 197.185871
18689   1 2 0.0 26.787308 -6.240194 202.215394
18690   1 2 0.0 27.110589 -5.603163 195.178515
18691   1 2 0.0 31.823704 -8.698995 197.174766
18692   1 2 0.0 27.175850 -5.149791 198.103913
18693   1 2 0.0 24.345335 -3.954393 197.756980
18694   1 2 0.0 25.641039 -3.867030 201.217664
18695   1 2 0.0 27.215285 -6.809070 197.545689
18696   1 2 0.0 30.597237 -9.124711 195.866215
18697   1 1 0.0 19.394613 1.673737 4.509716
18698   1 1 0.0 21.787858 -2.665606 203.922924
18699   1 1 0.0 21.004136 1.816624 1.117905
18700   1 1 0.0 20.371924 0.544806 204.284451
18701   1 2 0.0 20.528466 -0.310618 3.992098
18702   1 2 0.0 20.981445 0.241768 202.277095
18703   1 2 0.0 24.916569 -3.797096 204.273346
18704   1 2 0.0 21.142884 0.670420 205.202493
18705   1 2 0.0 18.636528 2.447767 204.855560
18706   1 2 0.0 19.920609 2.253822 2.994368
18707   1 2 0.0 20.823779 -0.958363 204.644269
18708   1 2 0.0 23.627174 -3.948475 202.964795
18709   1 1 0.0 15.015150 9.010626 11.608296
18710   1 1 0.0 16.416919 4.257463 5.699628
18711   1 1 0.0 16.617642 8.803265 8.216485
18712   1 1 0.0 15.726181 7.697593 6.061155
18713   1 2 0.0 15.694681 6.828535 11.090678
18714   1 2 0.0 16.256065 7.270311 4.053799
18715   1 2 0.0 19.228238 2.478253 6.050050
18716   1 2 0.0 16.506096 7.654095 6.979197
18717   1 2 0.0 14.441703 9.929851 6.632264
18718   1 2 0.0 15.653807 9.463714 10.092948
18719   1 2 0.0 15.843448 6.132365 6.420973
18720   1 2 0.0 17.936520 2.608327 4.741499
18721   1 1 0.0 12.319884 17.118967 18.706876
18722   1 1 0.0 12.664290 12.175395 12.798208
18723   1 1 0.0 13.840024 16.571104 15.315065
18724   1 1 0.0 12.731216 15.683548 13.159735
18725   1 2 0.0 12.513152 14.841703 18.189258
18726   1 2 0.0 13.156557 15.152104 11.152379
18727   1 2 0.0 15.026077 9.832093 13.148630
18728   1 2 0.0 13.483426 15.472982 14.077777
18729   1 2 0.0 11.958029 18.140180 13.730844
18730   1 2 0.0 13.041183 17.423761 17.191528
18731   1 2 0.0 12.508383 14.129831 13.519553
18732   1 2 0.0 13.792750 10.237506 11.840079
18733   1 1 0.0 11.435501 25.617644 25.805456
18734   1 1 0.0 10.706356 20.716025 19.896788
18735   1 1 0.0 12.801838 24.755030 22.413645
18736   1 1 0.0 11.527799 24.127308 20.258315
18737   1 2 0.0 11.133423 23.352245 25.287838
18738   1 2 0.0 11.828606 23.516682 18.250959
18739   1 2 0.0 12.507600 17.918773 20.247210
18740   1 2 0.0 12.216949 23.759571 21.176357
18741   1 2 0.0 11.302245 26.692846 20.829424
18742   1 2 0.0 12.205539 25.759818 24.290108
18743   1 2 0.0 10.975340 22.658131 20.618133
18744   1 2 0.0 11.390635 18.580470 18.938659
18745   1 1 0.0 12.403569 34.107196 32.904036
18746   1 1 0.0 10.635145 29.477920 26.995368
18747   1 1 0.0 13.551882 32.970376 29.512225
18748   1 1 0.0 12.172495 32.631992 27.356895
18749   1 2 0.0 11.620343 31.960142 32.386418
18750   1 2 0.0 12.334628 31.970886 25.349539
18751   1 2 0.0 11.791183 26.358196 27.345790
18752   1 2 0.0 12.766193 32.124369 28.274937
18753   1 2 0.0 12.505177 35.185849 27.928004
18754   1 2 0.0 13.186152 34.080067 31.388688
18755   1 2 0.0 11.316377 31.316411 27.716713
18756   1 2 0.0 10.843079 27.245075 26.037239
18757   1 1 0.0 15.178586 42.188589 40.002616
18758   1 1 0.0 12.454004 38.049246 34.093948
18759   1 1 0.0 16.054900 40.830998 36.610805
18760   1 1 0.0 14.635001 40.797857 34.455475
18761   1 2 0.0 13.951026 40.260798 39.484998
18762   1 2 0.0 14.650840 40.117345 32.448119
18763   1 2 0.0 12.910498 34.753686 34.444370
18764   1 2 0.0 15.105342 40.174208 35.373517
18765   1 2 0.0 15.510281 43.219994 35.026584
18766   1 2 0.0 15.936931 41.993433 38.487268
18767   1 2 0.0 13.515465 39.697708 34.815293
18768   1 2 0.0 12.175820 35.824061 33.135819
18769   1 1 0.0 19.630119 49.481977 47.101196
18770   1 1 0.0 16.077441 46.027126 41.192528
18771   1 1 0.0 20.193245 47.967425 43.709385
18772   1 1 0.0 18.799573 48.241085 41.554055
18773   1 2 0.0 18.015923 47.864060 46.583578
18774   1 2 0.0 18.668373 47.573152 39.546699
18775   1 2 0.0 15.812936 42.710631 41.542950
18776   1 2 0.0 19.124449 47.530722 42.472097
18777   1 2 0.0 20.176311 50.417654 42.125164
18778   1 2 0.0 20.328580 49.127966 45.585848
18779   1 2 0.0 17.469239 47.408077 41.913873
18780   1 2 0.0 15.326215 43.914191 40.234399
18781   1 1 0.0 25.548933 55.644549 54.199776
18782   1 1 0.0 21.335145 53.036578 48.291108
18783   1 1 0.0 25.772403 54.044223 50.807965
18784   1 1 0.0 24.470464 54.611821 48.652635
18785   1 2 0.0 23.623973 54.412552 53.682158
18786   1 2 0.0 24.198392 53.987862 46.645279
18787   1 2 0.0 20.362073 49.855032 48.641530
18788   1 2 0.0 24.634605 53.848135 49.570677
18789   1 2 0.0 26.283949 56.440518 49.223744
18790   1 2 0.0 26.154682 55.148322 52.684428
18791   1 2 0.0 22.991862 54.085109 49.012453
18792   1 2 0.0 20.146186 51.135207 47.332979
18793   1 1 0.0 32.067821 56.313920 60.106068
18794   1 1 0.0 26.227458 54.758550 55.807127
18795   1 1 0.0 32.378772 54.443310 56.497937
18796   1 1 0.0 29.777056 55.478414 55.829437
18797   1 2 0.0 30.312581 55.556926 59.391867
18798   1 2 0.0 29.373276 54.807281 53.958698
18799   1 2 0.0 27.245080 51.743235 53.886710
18800   1 2 0.0 30.718947 54.590850 55.852963
18801   1 2 0.0 31.104592 57.015234 57.000953
18802   1 2 0.0 32.686243 55.551764 58.511100
18803   1 2 0.0 28.138043 55.389195 56.330646
18804   1 2 0.0 25.553752 53.062627 54.195480
18805   1 1 0.0 39.166777 59.635311 67.204648
18806   1 1 0.0 33.128452 59.375232 62.905707
18807   1 1 0.0 39.067260 57.741646 63.596517
18808   1 1 0.0 36.749777 59.313155 62.928017
18809   1 2 0.0 37.289638 59.274404 66.490447
18810   1 2 0.0 36.210841 58.744819 61.057278
18811   1 2 0.0 33.472287 56.211459 60.985290
18812   1 2 0.0 37.478241 58.243450 62.951543
18813   1 2 0.0 38.377335 60.527742 64.099533
18814   1 2 0.0 39.606403 58.757782 65.609680
18815   1 2 0.0 35.130054 59.579279 63.429226
18816   1 2 0.0 32.105067 57.864365 61.294060
18817   1 1 0.0 46.814737 61.348651 74.303228
18818   1 1 0.0 40.862267 62.396087 70.004287
18819   1 1 0.0 46.309428 59.520938 70.695097
18820   1 1 0.0 44.385108 61.554987 70.026597
18821   1 2 0.0 44.903929 61.400793 73.589027
18822   1 2 0.0 43.736347 61.116161 68.155858
18823   1 2 0.0 40.516153 59.232562 68.083870
18824   1 2 0.0 44.865905 60.353420 70.050123
18825   1 2 0.0 46.236188 62.390252 71.198113
18826   1 2 0.0 47.054902 60.396996 72.708260
18827   1 2 0.0 42.860806 62.163945 70.527806
18828   1 2 0.0 39.537306 61.141291 68.392640
18829   1 1 0.0 54.652224 61.373408 81.401808
18830   1 1 0.0 49.065393 63.679126 77.102867
18831   1 1 0.0 53.764876 59.697555 77.793677
18832   1 1 0.0 52.324165 62.098538 77.125177
18833   1 2 0.0 52.797561 61.836150 80.687607
18834   1 2 0.0 51.596074 61.809848 75.254438
18835   1 2 0.0 48.045599 60.664545 75.182450
18836   1 2 0.0 52.534696 60.821587 77.148703
18837   1 2 0.0 54.311762 62.515221 78.296693
18838   1 2 0.0 54.681641 60.392357 79.806840
18839   1 2 0.0 50.966932 63.021708 77.626386
18840   1 2 0.0 47.501132 62.739381 75.491220
18841   1 1 0.0 62.310855 59.708419 88.500388
18842   1 1 0.0 57.352260 63.164044 84.201447
18843   1 1 0.0 61.083174 58.263196 84.892257
18844   1 1 0.0 60.193791 60.918259 84.223757
18845   1 2 0.0 60.599511 60.560009 87.786187
18846   1 2 0.0 59.420592 60.793275 82.353018
18847   1 2 0.0 55.706718 60.440099 82.281030
18848   1 2 0.0 60.124162 59.625943 84.247283
18849   1 2 0.0 62.224482 60.896775 85.395273
18850   1 2 0.0 62.128141 58.744083 86.905420
18851   1 2 0.0 59.067420 62.112249 84.724966
18852   1 2 0.0 55.622223 62.583519 82.589800
18853   1 1 0.0 69.430653 56.431942 95.598968
18854   1 1 0.0 65.333361 60.875050 91.300027
18855   1 1 0.0 67.920345 55.285278 91.990837
18856   1 1 0.0 67.624093 58.069627 91.322337
18857   1 2 0.0 67.943066 57.632354 94.884767
18858   1 2 0.0 66.842127 58.114223 89.451598
18859   1 2 0.0 63.139417 58.569776 89.379610
18860   1 2 0.0 67.277574 56.822689 91.345863
18861   1 2 0.0 69.602429 57.610986 92.493853
18862   1 2 0.0 69.044396 55.529649 94.004000
18863   1 2 0.0 66.781526 59.478316 91.823546
18864   1 2 0.0 63.518866 60.681033 89.688380
18865   1 1 0.0 75.676967 51.697982 102.697548
18866   1 1 0.0 72.633562 56.919734 98.398607
18867   1 1 0.0 73.955020 50.903773 99.089417
18868   1 1 0.0 74.265823 53.686536 98.420917
18869   1 2 0.0 74.483057 53.190793 101.983347
18870   1 2 0.0 73.511847 53.898615 96.550178
18871   1 2 0.0 69.994337 55.141484 96.478190
18872   1 2 0.0 73.658704 52.543585 98.444443
18873   1 2 0.0 76.098818 52.812295 99.592433
18874   1 2 0.0 75.105322 50.900141 101.102580
18875   1 2 0.0 73.746664 55.243712 98.922126
18876   1 2 0.0 70.819895 57.121343 96.786960
18877   1 1 0.0 80.756203 45.729047 109.796128
18878   1 1 0.0 78.909734 51.484007 105.497187
18879   1 1 0.0 78.903553 45.324624 106.187997
18880   1 1 0.0 79.806804 47.975002 105.519497
18881   1 2 0.0 79.912088 47.444091 109.081927
18882   1 2 0.0 79.116255 48.344597 103.648758
18883   1 2 0.0 75.949279 50.316364 103.576770
18884   1 2 0.0 78.967619 46.989761 105.543023
18885   1 2 0.0 81.408300 46.726253 106.691013
18886   1 2 0.0 80.026038 45.073160 108.201160
18887   1 2 0.0 79.635454 49.607474 106.020706
18888   1 2 0.0 77.182142 52.071766 103.885540
18889   1 1 0.0 84.429622 38.805695 116.894708
18890   1 1 0.0 83.866879 44.823363 112.595767
18891   1 1 0.0 82.533349 38.810066 113.286577
18892   1 1 0.0 83.986592 41.203484 112.618077
18893   1 2 0.0 83.974978 40.662359 116.180507
18894   1 2 0.0 83.391929 41.713223 110.747338
18895   1 2 0.0 80.724344 44.321209 110.675350
18896   1 2 0.0 82.954787 40.422262 112.641603
18897   1 2 0.0 85.281316 39.638922 113.789593
18898   1 2 0.0 83.575258 38.322590 115.299740
18899   1 2 0.0 84.171105 42.834521 113.119286
18900   1 2 0.0 82.306564 45.769646 110.984120
18901   1 1 0.0 86.524564 31.253341 123.993288
18902   1 1 0.0 87.271997 37.250871 119.694347
18903   1 1 0.0 84.673799 31.666302 120.385157
18904   1 1 0.0 86.608726 33.690263 119.716657
18905   1 2 0.0 86.480760 33.164358 123.279087
18906   1 2 0.0 86.137899 34.316187 117.845918
18907   1 2 0.0 84.095090 37.437809 117.773930
18908   1 2 0.0 85.432799 33.149780 119.740183
18909   1 2 0.0 87.535822 31.883427 120.888173
18910   1 2 0.0 85.586159 30.965726 122.398320
18911   1 2 0.0 87.140431 35.243201 120.217866
18912   1 2 0.0 85.952297 38.511200 118.082700
18913   1 1 0.0 86.942561 23.426969 131.091868
18914   1 1 0.0 88.965037 29.122459 126.792927
18915   1 1 0.0 85.224293 24.229109 127.483737
18916   1 1 0.0 87.549959 25.788481 126.815237
18917   1 2 0.0 87.311656 25.302515 130.377667
18918   1 2 0.0 87.225099 26.501169 124.944498
18919   1 2 0.0 85.903082 29.989703 124.872510
18920   1 2 0.0 86.285180 25.514140 126.838763
18921   1 2 0.0 88.065851 23.824297 127.986753
18922   1 2 0.0 85.964221 23.348362 129.496900
18923   1 2 0.0 88.403863 27.190328 127.316446
18924   1 2 0.0 87.947984 30.637595 125.181280
18925   1 1 0.0 85.663965 15.694440 138.190448
18926   1 1 0.0 88.866423 20.820186 133.891507
18927   1 1 0.0 84.158959 16.848055 134.582317
18928   1 1 0.0 86.766050 17.869544 133.913817
18929   1 2 0.0 86.428610 17.446359 137.476247
18930   1 2 0.0 86.602426 18.635498 132.043078
18931   1 2 0.0 86.063340 22.326972 131.971090
18932   1 2 0.0 85.471868 17.874240 133.937343
18933   1 2 0.0 86.846490 15.840334 135.085333
18934   1 2 0.0 84.691675 15.828535 136.595480
18935   1 2 0.0 87.902017 19.054409 134.415026
18936   1 2 0.0 88.199820 22.518913 132.279860
18937   1 1 0.0 82.748873 8.419203 145.289028
18938   1 1 0.0 86.980790 12.734281 140.990087
18939   1 1 0.0 81.527869 9.870072 141.680897
18940   1 1 0.0 84.293845 10.305664 141.012397
18941   1 2 0.0 83.873129 9.965151 144.574827
18942   1 2 0.0 84.299147 11.088882 139.141658
18943   1 2 0.0 84.568331 14.809787 139.069670
18944   1 2 0.0 83.031091 10.589177 141.035923
18945   1 2 0.0 83.935051 8.306806 142.183913
18946   1 2 0.0 81.828335 8.759699 143.694060
18947   1 2 0.0 85.658482 11.217855 141.513606
18948   1 2 0.0 86.695969 14.536755 139.378440
18949   1 1 0.0 78.334305 1.943217 152.387608
18950   1 1 0.0 83.396767 5.244805 148.088667
18951   1 1 0.0 77.454692 3.623143 148.779477
18952   1 1 0.0 80.249545 3.452365 148.110977
18953   1 2 0.0 79.765327 3.210529 151.673407
18954   1 2 0.0 80.423524 4.216033 146.240238
18955   1 2 0.0 81.488325 7.791476 146.168250
18956   1 2 0.0 79.077570 4.001368 148.134503
18957   1 2 0.0 79.468381 1.577812 149.282493
18958   1 2 0.0 77.508785 2.474108 150.792640
18959   1 2 0.0 81.778709 4.049006 148.612186
18960   1 2 0.0 83.507115 7.066304 146.477020
18961   1 1 0.0 72.627755 -3.429131 159.486188
18962   1 1 0.0 78.282813 -1.296215 155.187247
18963   1 1 0.0 72.130879 -1.599108 155.878057
18964   1 1 0.0 74.823242 -2.368230 155.209557
18965   1 2 0.0 74.298282 -2.500022 158.771987
18966   1 2 0.0 75.157721 -1.660005 153.338818
18967   1 2 0.0 76.968091 1.601920 153.266830
18968   1 2 0.0 73.797134 -1.579540 155.233083
18969   1 2 0.0 73.656426 -4.030369 156.381073
18970   1 2 0.0 71.936056 -2.732797 157.891220
18971   1 2 0.0 76.445059 -2.115181 155.710766
18972   1 2 0.0 78.783145 0.458694 153.575600
18973   1 1 0.0 65.897450 -7.445323 166.584768
18974   1 1 0.0 71.879300 -6.581334 162.285827
18975   1 1 0.0 65.806664 -5.551220 162.976637
18976   1 1 0.0 68.269988 -6.882535 162.308137
18977   1 2 0.0 67.728962 -6.898088 165.870567
18978   1 2 0.0 68.749246 -6.263043 160.437398
18979   1 2 0.0 71.220092 -3.467955 160.365410
18980   1 2 0.0 67.437976 -5.891230 162.331663
18981   1 2 0.0 66.772364 -8.254135 163.479653
18982   1 2 0.0 65.372083 -6.616277 164.989800
18983   1 2 0.0 69.908229 -6.984973 162.809346
18984   1 2 0.0 72.746097 -4.975501 160.674180
18985   1 1 0.0 58.459730 -9.916589 173.683348
18986   1 1 0.0 64.487209 -10.362135 169.384407
18987   1 1 0.0 58.779303 -8.047433 170.075217
18988   1 1 0.0 60.897806 -9.878365 169.406717
18989   1 2 0.0 60.366142 -9.776949 172.969147
18990   1 2 0.0 61.499316 -9.376724 167.535978
18991   1 2 0.0 64.514501 -7.179850 167.463990
18992   1 2 0.0 60.298997 -8.731039 169.430243
18993   1 2 0.0 59.139765 -10.894957 170.578233
18994   1 2 0.0 58.125390 -8.993798 172.088380
18995   1 2 0.0 62.475467 -10.331476 169.907926
18996   1 2 0.0 65.679731 -8.980858 167.772760
18997   1 1 0.0 50.664192 -10.726772 180.781928
18998   1 1 0.0 56.453990 -12.460912 176.482987
18999   1 1 0.0 51.379101 -8.970419 177.173797
19000   1 1 0.0 53.053207 -11.214909 176.505297
19001   1 2 0.0 52.555896 -11.001290 180.067727
19002   1 2 0.0 53.748696 -10.854696 174.634558
19003   1 2 0.0 57.166499 -9.359297 174.562570
19004   1 2 0.0 52.715747 -9.965489 176.528823
19005   1 2 0.0 51.117383 -11.828710 177.676813
19006   1 2 0.0 50.536592 -9.753609 179.186960
19007   1 2 0.0 54.496135 -11.997395 177.006506
19008   1 2 0.0 57.916184 -11.369113 174.871340
19009   1 1 0.0 42.877245 -9.837790 187.880508
19010   1 1 0.0 48.157227 -12.779014 183.581567
19011   1 1 0.0 43.953889 -8.276794 184.272377
19012   1 1 0.0 45.104910 -10.829345 183.603877
19013   1 2 0.0 44.665326 -10.513564 187.166307
19014   1 2 0.0 45.861689 -10.627492 181.733138
19015   1 2 0.0 49.521463 -9.903854 181.661150
19016   1 2 0.0 45.044661 -9.536558 183.627403
19017   1 2 0.0 43.082292 -11.011505 184.775393
19018   1 2 0.0 42.962384 -8.859997 186.285540
19019   1 2 0.0 46.345283 -11.904426 184.105086
19020   1 2 0.0 49.820366 -12.028012 181.969920
19021   1 1 0.0 35.464900 -7.291429 194.979088
19022   1 1 0.0 39.986891 -11.301492 190.680147
19023   1 1 0.0 36.852673 -5.999161 191.370957
19024   1 1 0.0 37.426508 -8.739795 190.702457
19025   1 2 0.0 37.065313 -8.336695 194.264887
19026   1 2 0.0 38.209005 -8.705790 188.831718
19027   1 2 0.0 41.938730 -8.787927 188.759730
19028   1 2 0.0 37.646301 -7.464405 190.725983
19029   1 2 0.0 35.412165 -8.481752 191.873973
19030   1 2 0.0 35.758776 -6.354964 193.384120
19031   1 2 0.0 38.406025 -10.056941 191.203666
19032   1 2 0.0 41.772803 -10.926584 189.068500
19033   1 1 0.0 28.775556 -3.207374 202.077668
19034   1 1 0.0 32.327011 -8.097791 197.778727
19035   1 1 0.0 30.409229 -2.244574 198.469537
19036   1 1 0.0 30.378906 -5.044475 197.801037
19037   1 2 0.0 30.113078 -4.573002 201.363467
19038   1 2 0.0 31.150343 -5.179916 195.930298
19039   1 2 0.0 34.774712 -6.063967 195.858310
19040   1 2 0.0 30.868411 -3.846429 197.824563
19041   1 2 0.0 28.467518 -4.358357 198.972553
19042   1 2 0.0 29.264356 -2.356255 200.482700
19043   1 2 0.0 31.051527 -6.541775 198.302246
19044   1 2 0.0 34.151752 -8.116601 196.167080
19045   1 1 0.0 23.123633 2.222412 3.854372
19046   1 1 0.0 25.537622 -3.318496 204.877307
19047   1 1 0.0 24.926418 2.810490 0.246241
19048   1 1 0.0 24.293363 0.082926 204.899617
19049   1 2 0.0 24.135395 0.600611 3.140171
19050   1 2 0.0 25.017479 -0.215595 203.028878
19051   1 2 0.0 28.366136 -1.860007 202.956890
19052   1 2 0.0 25.029570 1.147316 204.923143
19053   1 2 0.0 22.574769 1.164869 0.749257
19054   1 2 0.0 23.784381 2.948181 2.259404
19055   1 2 0.0 24.627472 -1.524151 0.078950
19056   1 2 0.0 27.315425 -3.730139 203.265660
19057   1 1 0.0 18.774785 8.742715 10.952952
19058   1 1 0.0 19.937845 2.811753 6.654011
19059   1 1 0.0 20.661947 8.928429 7.344821
19060   1 1 0.0 19.455915 6.401405 6.676321
19061   1 2 0.0 19.413233 6.940969 10.238751
19062   1 2 0.0 20.098674 5.953835 4.805582
19063   1 2 0.0 23.014224 3.626354 4.733594
19064   1 2 0.0 20.404222 7.282110 6.699847
19065   1 2 0.0 18.010894 7.828318 7.847837
19066   1 2 0.0 19.576425 9.309020 9.357984
19067   1 2 0.0 19.435809 4.760088 7.177530
19068   1 2 0.0 21.585148 2.026626 5.042364
19069   1 1 0.0 15.933422 16.047061 18.051532
19070   1 1 0.0 15.790884 10.004819 13.752591
19071   1 1 0.0 17.816258 15.821682 14.443401
19072   1 1 0.0 16.093936 13.613975 13.774901
19073   1 2 0.0 16.168546 14.150058 17.337331
19074   1 2 0.0 16.625128 13.038395 11.904162
19075   1 2 0.0 18.970530 10.137243 11.832174
19076   1 2 0.0 17.209769 14.269600 13.798427
19077   1 2 0.0 14.990409 15.318790 14.946417
19078   1 2 0.0 16.838274 16.427285 16.456564
19079   1 2 0.0 15.720560 12.015565 14.276110
19080   1 2 0.0 17.230261 8.883109 12.140944
19081   1 1 0.0 14.733094 23.792126 25.150112
19082   1 1 0.0 13.291660 17.922605 20.851171
19083   1 1 0.0 16.523107 23.166248 21.541981
19084   1 1 0.0 14.365448 21.381627 20.873481
19085   1 2 0.0 14.553844 21.889031 24.435911
19086   1 2 0.0 14.760105 20.705089 19.002742
19087   1 2 0.0 16.425120 17.366628 18.930754
19088   1 2 0.0 15.596361 21.781355 20.897007
19089   1 2 0.0 13.655284 23.284213 22.044997
19090   1 2 0.0 15.698629 23.968397 23.555144
19091   1 2 0.0 13.656352 19.901253 21.374690
19092   1 2 0.0 14.455454 16.517038 19.239524
19093   1 1 0.0 15.230222 31.613871 32.248692
19094   1 1 0.0 12.557642 26.192955 27.949751
19095   1 1 0.0 16.843275 30.616911 28.640561
19096   1 1 0.0 14.351696 29.339258 27.972061
19097   1 2 0.0 14.645022 29.794133 31.534491
19098   1 2 0.0 14.591268 28.593561 26.101322
19099   1 2 0.0 15.497635 24.974709 26.029334
19100   1 2 0.0 15.639832 29.464301 27.995587
19101   1 2 0.0 14.068274 31.350187 29.143577
19102   1 2 0.0 16.211055 31.577903 30.653724
19103   1 2 0.0 13.340209 28.046502 28.473270
19104   1 2 0.0 13.391152 24.569595 26.338104
19105   1 1 0.0 17.401438 39.144650 39.347272
19106   1 1 0.0 13.623331 34.427138 35.048331
19107   1 1 0.0 18.761714 37.823469 35.739141
19108   1 1 0.0 16.053326 37.112837 35.070641
19109   1 2 0.0 16.437794 37.493804 38.633071
19110   1 2 0.0 16.126552 36.333032 33.199902
19111   1 2 0.0 16.231669 32.603884 33.127914
19112   1 2 0.0 17.338138 36.957318 35.094167
19113   1 2 0.0 16.209968 39.137591 36.242157
19114   1 2 0.0 18.351469 38.898135 37.752304
19115   1 2 0.0 14.786990 36.068462 35.571850
19116   1 2 0.0 14.087380 32.662288 33.436684
19117   1 1 0.0 21.144689 46.030497 46.445852
19118   1 1 0.0 16.438638 42.238125 42.146911
19119   1 1 0.0 22.188251 44.447194 42.837721
19120   1 1 0.0 19.390355 44.336985 42.169221
19121   1 2 0.0 19.847896 44.626136 45.731651
19122   1 2 0.0 19.293795 43.559724 40.298482
19123   1 2 0.0 18.592722 39.895561 40.226494
19124   1 2 0.0 20.611455 43.908213 42.192747
19125   1 2 0.0 19.979699 46.280394 43.340737
19126   1 2 0.0 22.019263 45.585021 44.850884
19127   1 2 0.0 17.928693 43.590080 42.670430
19128   1 2 0.0 16.511414 40.414738 40.535264
19129   1 1 0.0 26.284033 51.947758 53.544432
19130   1 1 0.0 20.871234 49.258777 49.245491
19131   1 1 0.0 26.961830 50.176752 49.936301
19132   1 1 0.0 24.205936 50.672146 49.267801
19133   1 2 0.0 24.715042 50.855891 52.830231
19134   1 2 0.0 23.944126 49.933963 47.397062
19135   1 2 0.0 22.469815 46.507011 47.325074
19136   1 2 0.0 25.305927 49.990275 49.291327
19137   1 2 0.0 25.200280 52.442865 50.439317
19138   1 2 0.0 27.042042 51.324260 51.949464
19139   1 2 0.0 22.617649 50.257817 49.769010
19140   1 2 0.0 20.549316 47.462558 47.633844
19141   1 1 0.0 36.088776 51.722906 55.777067
19142   1 1 0.0 28.735384 51.008367 53.446308
19143   1 1 0.0 36.684948 49.839108 52.100943
19144   1 1 0.0 32.199724 51.350089 53.340001
19145   1 2 0.0 34.949502 51.151042 54.675675
19146   1 2 0.0 31.658821 50.703805 51.725559
19147   1 2 0.0 33.186323 47.944642 48.518676
19148   1 2 0.0 34.287972 50.275257 52.272859
19149   1 2 0.0 32.605122 52.874594 55.195780
19150   1 2 0.0 36.716804 50.895839 54.217808
19151   1 2 0.0 30.628391 51.438662 53.850325
19152   1 2 0.0 29.018142 49.383364 51.106966
19153   1 1 0.0 42.103762 54.285581 62.875647
19154   1 1 0.0 34.769185 55.172665 60.544888
19155   1 1 0.0 42.279920 52.317566 59.199523
19156   1 1 0.0 38.225757 54.759709 60.438581
19157   1 2 0.0 40.868012 53.972697 61.774255
19158   1 2 0.0 37.558277 54.245191 58.824139
19159   1 2 0.0 38.455215 51.221659 55.617256
19160   1 2 0.0 40.033276 53.260070 59.371439
19161   1 2 0.0 38.950194 56.161013 62.294360
19162   1 2 0.0 42.538777 53.342596 61.316388
19163   1 2 0.0 36.710442 55.184860 60.948905
19164   1 2 0.0 34.695071 53.524912 58.205546
19165   1 1 0.0 48.529705 55.491657 69.974227
19166   1 1 0.0 41.558688 57.938670 67.643468
19167   1 1 0.0 48.277568 53.531927 66.298103
19168   1 1 0.0 44.845024 56.790445 67.537161
19169   1 2 0.0 47.255562 55.452460 68.872835
19170   1 2 0.0 44.082339 56.431877 65.922719
19171   1 2 0.0 44.306556 53.286091 62.715836
19172   1 2 0.0 46.286856 54.936487 66.470019
19173   1 2 0.0 45.854450 58.002682 69.392940
19174   1 2 0.0 48.751261 54.477078 68.414968
19175   1 2 0.0 43.456951 57.532190 68.047485
19176   1 2 0.0 41.131185 56.345614 65.304126
19177   1 1 0.0 55.064566 55.284446 77.072807
19178   1 1 0.0 48.784767 59.176370 74.742048
19179   1 1 0.0 54.395987 53.425113 73.396683
19180   1 1 0.0 51.746400 57.346846 74.635741
19181   1 2 0.0 53.811920 55.520778 75.971415
19182   1 2 0.0 50.924360 57.161081 73.021299
19183   1 2 0.0 50.465315 54.040902 69.814416
19184   1 2 0.0 52.754775 55.225709 73.568599
19185   1 2 0.0 52.993370 58.313039 76.491520
19186   1 2 0.0 55.062250 54.245960 75.513548
19187   1 2 0.0 50.550813 58.370322 75.146065
19188   1 2 0.0 48.023971 57.712890 72.402706
19189   1 1 0.0 61.401191 53.673686 84.171387
19190   1 1 0.0 56.107778 58.827590 81.840628
19191   1 1 0.0 60.347594 52.002145 80.495263
19192   1 1 0.0 58.605503 56.402761 81.734321
19193   1 2 0.0 60.228918 54.174439 83.069995
19194   1 2 0.0 57.762745 56.398531 80.119879
19195   1 2 0.0 56.642016 53.450615 76.912996
19196   1 2 0.0 59.133024 54.114145 80.667179
19197   1 2 0.0 60.031404 57.077495 83.590100
19198   1 2 0.0 61.175110 52.660105 82.612128
19199   1 2 0.0 57.658597 57.659861 82.244645
19200   1 2 0.0 55.049446 57.562474 79.501286
19201   1 1 0.0 67.241739 50.735088 91.269967
19202   1 1 0.0 63.183517 56.908725 88.939208
19203   1 1 0.0 65.852646 49.329906 87.593843
19204   1 1 0.0 65.099934 54.002563 88.832901
19205   1 2 0.0 66.204940 51.476725 90.168575
19206   1 2 0.0 64.276070 54.180067 87.218459
19207   1 2 0.0 62.546334 51.542975 84.011576
19208   1 2 0.0 65.121806 51.654040 87.765759
19209   1 2 0.0 66.637746 54.354125 90.688680
19210   1 2 0.0 66.802521 49.794054 89.710708
19211   1 2 0.0 64.446216 55.434201 89.343225
19212   1 2 0.0 61.877395 55.901436 86.599866
19213   1 1 0.0 72.311688 46.606775 98.368547
19214   1 1 0.0 69.679406 53.509965 96.037788
19215   1 1 0.0 70.652390 45.533999 94.692423
19216   1 1 0.0 70.924437 50.259070 95.931481
19217   1 2 0.0 71.459096 47.554437 97.267155
19218   1 2 0.0 70.158191 50.609964 94.317039
19219   1 2 0.0 67.900750 48.407647 91.110156
19220   1 2 0.0 70.439633 47.961025 94.864339
19221   1 2 0.0 72.501878 50.270934 97.787260
19222   1 2 0.0 71.679977 45.782518 96.809288
19223   1 2 0.0 70.594634 51.797953 96.441805
19224   1 2 0.0 68.186884 52.807849 93.698446
19225   1 1 0.0 76.372736 41.482788 105.467127
19226   1 1 0.0 75.290118 48.791063 103.136368
19227   1 1 0.0 74.521226 40.792842 101.791003
19228   1 1 0.0 75.805244 45.348234 103.030061
19229   1 2 0.0 75.744426 42.591932 104.365735
19230   1 2 0.0 75.132632 45.856026 101.415619
19231   1 2 0.0 72.453593 44.191999 98.208736
19232   1 2 0.0 74.836550 43.208684 101.962919
19233   1 2 0.0 77.348170 45.019844 104.885840
19234   1 2 0.0 75.578224 40.814051 103.907868
19235   1 2 0.0 75.814858 46.922032 103.540385
19236   1 2 0.0 73.681351 48.427122 100.797026
19237   1 1 0.0 79.234004 35.603970 112.565707
19238   1 1 0.0 79.751935 42.973820 110.234948
19239   1 1 0.0 77.277307 35.329283 108.889583
19240   1 1 0.0 79.512944 39.500881 110.128641
19241   1 2 0.0 78.859506 36.822464 111.464315
19242   1 2 0.0 78.965581 40.141703 108.514199
19243   1 2 0.0 75.990865 39.094179 105.307316
19244   1 2 0.0 78.105892 37.620389 109.061499
19245   1 2 0.0 80.948833 38.847671 111.984420
19246   1 2 0.0 78.314035 35.122185 111.006448
19247   1 2 0.0 79.861523 41.035620 110.638965
19248   1 2 0.0 78.102538 42.965160 107.895606
19249   1 1 0.0 80.761002 29.246641 119.664287
19250   1 1 0.0 82.855140 36.331663 117.333528
19251   1 1 0.0 78.791089 29.400124 115.988163
19252   1 1 0.0 81.873264 32.991851 117.227221
19253   1 2 0.0 80.657920 30.517211 118.562895
19254   1 2 0.0 81.476877 33.735582 115.612779
19255   1 2 0.0 78.346305 33.353799 112.405896
19256   1 2 0.0 80.093989 31.458807 116.160079
19257   1 2 0.0 83.134625 32.044524 119.083000
19258   1 2 0.0 79.758818 28.974454 118.105028
19259   1 2 0.0 82.544424 34.415394 117.737545
19260   1 2 0.0 81.242639 36.678690 114.994186
19261   1 1 0.0 80.881959 22.709614 126.762867
19262   1 1 0.0 84.453872 29.176791 124.432108
19263   1 1 0.0 78.991421 23.284053 123.086743
19264   1 1 0.0 82.775262 26.127087 124.325801
19265   1 2 0.0 81.055138 23.972541 125.661475
19266   1 2 0.0 82.548483 26.938771 122.711359
19267   1 2 0.0 79.409200 27.240672 119.504476
19268   1 2 0.0 80.707396 25.013548 123.258659
19269   1 2 0.0 83.802809 24.930170 126.181580
19270   1 2 0.0 79.844665 22.659818 125.203608
19271   1 2 0.0 83.737457 27.372525 124.836125
19272   1 2 0.0 82.954060 29.863195 122.092766
19273   1 1 0.0 79.591188 16.300147 133.861447
19274   1 1 0.0 84.472986 21.845504 131.530688
19275   1 1 0.0 77.868886 17.268542 130.185323
19276   1 1 0.0 82.176543 19.229253 131.424381
19277   1 2 0.0 80.032488 17.496069 132.760055
19278   1 2 0.0 82.130030 20.070737 129.809939
19279   1 2 0.0 79.129592 21.042133 126.603056
19280   1 2 0.0 79.917280 18.587557 130.357239
19281   1 2 0.0 82.921976 17.839005 133.280160
19282   1 2 0.0 78.567540 16.475083 132.302188
19283   1 2 0.0 83.384546 20.238045 131.934705
19284   1 2 0.0 83.156358 22.839022 129.191346
19285   1 1 0.0 76.949360 10.319503 140.960027
19286   1 1 0.0 82.911585 14.682394 138.629268
19287   1 1 0.0 75.476246 11.636337 137.283903
19288   1 1 0.0 80.105247 12.622566 138.522961
19289   1 2 0.0 77.638038 11.392209 139.858635
19290   1 2 0.0 80.241187 13.454298 136.908519
19291   1 2 0.0 77.520623 15.049531 133.701636
19292   1 2 0.0 77.760779 12.482876 137.455819
19293   1 2 0.0 80.533530 11.104332 140.378740
19294   1 2 0.0 75.987472 10.710948 139.400768
19295   1 2 0.0 81.502279 13.347297 139.033285
19296   1 2 0.0 81.840027 15.936327 136.289926
19297   1 1 0.0 73.080647 5.048790 148.058607
19298   1 1 0.0 79.843059 8.024145 145.727848
19299   1 1 0.0 71.925963 6.652167 144.382483
19300   1 1 0.0 76.658732 6.617558 145.621541
19301   1 2 0.0 73.984334 5.947859 146.957215
19302   1 2 0.0 76.970735 7.400446 144.007099
19303   1 2 0.0 74.657918 9.544535 140.800216
19304   1 2 0.0 74.339256 6.986440 144.554399
19305   1 2 0.0 76.749734 5.042700 147.477320
19306   1 2 0.0 72.225731 5.638345 146.499348
19307   1 2 0.0 78.179128 7.024163 146.131865
19308   1 2 0.0 79.066936 9.479555 143.388506
19309   1 1 0.0 68.166891 0.735745 155.157187
19310   1 1 0.0 75.411636 2.183715 152.826428
19311   1 1 0.0 67.384909 2.550302 151.481063
19312   1 1 0.0 71.998993 1.496483 152.720121
19313   1 2 0.0 69.243111 1.418919 154.055795
19314   1 2 0.0 72.472394 2.193727 151.105679
19315   1 2 0.0 70.676034 4.785894 147.898796
19316   1 2 0.0 69.813530 2.356598 151.652979
19317   1 2 0.0 71.748437 -0.060977 154.575900
19318   1 2 0.0 67.459130 1.495700 153.597928
19319   1 2 0.0 73.571290 1.565851 153.230445
19320   1 2 0.0 74.967429 3.772194 150.487086
19321   1 1 0.0 62.439052 -2.416906 162.255767
19322   1 1 0.0 69.825607 -2.564380 159.925008
19323   1 1 0.0 62.066528 -0.476458 158.579643
19324   1 1 0.0 66.345050 -2.499955 159.818701
19325   1 2 0.0 63.637219 -1.981739 161.154375
19326   1 2 0.0 66.957599 -1.921127 158.204259
19327   1 2 0.0 65.762129 0.997279 154.997376
19328   1 2 0.0 64.396325 -1.189036 158.751559
19329   1 2 0.0 65.764713 -3.966813 161.674480
19330   1 2 0.0 61.911712 -1.522272 160.696508
19331   1 2 0.0 67.895347 -2.771085 160.329025
19332   1 2 0.0 69.734194 -0.917496 157.585666
19333   1 1 0.0 56.166353 -4.260980 169.354347
19334   1 1 0.0 63.347530 -5.996966 167.023588
19335   1 1 0.0 56.220797 -2.285847 165.678223
19336   1 1 0.0 59.962656 -5.183913 166.917281
19337   1 2 0.0 57.430151 -4.094273 168.252955
19338   1 2 0.0 60.685561 -4.750706 165.302839
19339   1 2 0.0 60.147172 -1.643235 162.095956
19340   1 2 0.0 58.342263 -3.483805 165.850139
19341   1 2 0.0 59.079815 -6.491220 168.773060
19342   1 2 0.0 55.844221 -3.273717 167.795088
19343   1 2 0.0 61.418084 -5.782797 167.427605
19344   1 2 0.0 63.613208 -4.369084 164.684246
19345   1 1 0.0 49.643630 -4.709800 176.452927
19346   1 1 0.0 56.281893 -7.952702 174.122168
19347   1 1 0.0 50.122482 -2.792819 172.776803
19348   1 1 0.0 53.151801 -6.429236 174.015861
19349   1 2 0.0 50.913656 -4.819389 175.351535
19350   1 2 0.0 53.951082 -6.162014 172.401419
19351   1 2 0.0 54.095080 -3.011536 169.194536
19352   1 2 0.0 51.935902 -4.419850 172.948719
19353   1 2 0.0 52.007952 -7.515547 175.871640
19354   1 2 0.0 49.541848 -3.676312 174.893668
19355   1 2 0.0 54.443951 -7.327725 174.526185
19356   1 2 0.0 56.892174 -6.420337 171.782826
19357   1 1 0.0 43.177469 -3.742270 183.551507
19358   1 1 0.0 48.960800 -8.339663 181.220748
19359   1 1 0.0 44.058222 -1.973545 179.875383
19360   1 1 0.0 46.232613 -6.177391 181.114441
19361   1 2 0.0 44.394028 -4.123005 182.450115
19362   1 2 0.0 47.070703 -6.088713 179.499999
19363   1 2 0.0 47.890320 -3.043312 176.293116
19364   1 2 0.0 45.478361 -3.953173 180.047299
19365   1 2 0.0 44.881521 -6.991646 182.970220
19366   1 2 0.0 43.300820 -2.711134 181.992248
19367   1 2 0.0 47.300750 -7.333253 181.624765
19368   1 2 0.0 49.887000 -6.974841 178.881406
19369   1 1 0.0 37.071797 -1.403867 190.650087
19370   1 1 0.0 41.728365 -7.139661 188.319328
19371   1 1 0.0 38.313054 0.133467 186.973963
19372   1 1 0.0 39.530315 -4.440216 188.213021
19373   1 2 0.0 38.177708 -2.037852 189.548695
19374   1 2 0.0 40.367821 -4.534250 186.598579
19375   1 2 0.0 41.824532 -1.737067 183.391696
19376   1 2 0.0 39.273160 -2.105711 187.145879
19377   1 2 0.0 38.035484 -4.944142 190.068800
19378   1 2 0.0 37.414484 -0.423549 189.090828
19379   1 2 0.0 40.324233 -5.799122 188.723345
19380   1 2 0.0 42.926949 -6.006532 185.979986
19381   1 1 0.0 31.613598 2.195497 197.748667
19382   1 1 0.0 34.924531 -4.409098 195.417908
19383   1 1 0.0 33.157016 3.429181 194.072543
19384   1 1 0.0 33.359933 -1.299362 195.311601
19385   1 2 0.0 32.556881 1.338062 196.647275
19386   1 2 0.0 34.157489 -1.571689 193.697159
19387   1 2 0.0 36.182825 0.845801 190.490276
19388   1 2 0.0 33.611963 1.035702 194.244459
19389   1 2 0.0 31.791624 -1.469273 197.167380
19390   1 2 0.0 32.159513 3.078919 196.189408
19391   1 2 0.0 33.842316 -2.797440 195.821925
19392   1 2 0.0 36.339163 -3.560923 193.078566
19393   1 1 0.0 27.059424 6.886643 204.847247
19394   1 1 0.0 28.869097 -0.276320 202.516488
19395   1 1 0.0 28.832457 7.758691 201.171123
19396   1 1 0.0 28.011491 3.097541 202.410181
19397   1 2 0.0 27.795740 5.846059 203.745855
19398   1 2 0.0 28.731612 2.659722 200.795739
19399   1 2 0.0 31.230376 4.583890 197.588856
19400   1 2 0.0 28.760860 5.323409 201.343039
19401   1 2 0.0 26.443420 3.269631 204.265960
19402   1 2 0.0 27.782907 7.631646 203.287988
19403   1 2 0.0 28.159667 1.530705 202.920505
19404   1 2 0.0 30.433286 0.247035 200.177146
19405   1 1 0.0 23.623332 12.449073 6.623951
19406   1 1 0.0 23.846687 5.064422 4.293192
19407   1 1 0.0 25.542644 12.918496 2.947827
19408   1 1 0.0 23.736383 8.543827 4.186885
19409   1 2 0.0 24.118073 11.274251 5.522559
19410   1 2 0.0 24.345219 7.961094 2.572443
19411   1 2 0.0 27.199963 9.301499 204.687436
19412   1 2 0.0 24.947868 10.555878 3.119743
19413   1 2 0.0 22.242254 9.049829 6.042664
19414   1 2 0.0 24.490379 13.020639 5.064692
19415   1 2 0.0 23.543386 6.981878 4.697209
19416   1 2 0.0 25.486910 5.238358 1.953850
19417   1 1 0.0 21.466829 18.621337 13.722531
19418   1 1 0.0 20.093367 11.362098 11.391772
19419   1 1 0.0 23.442206 18.666071 10.046407
19420   1 1 0.0 20.735550 14.783505 11.285465
19421   1 2 0.0 21.696741 17.367497 12.621139
19422   1 2 0.0 21.204485 14.083249 9.671023
19423   1 2 0.0 24.281027 14.776887 6.464140
19424   1 2 0.0 22.352208 16.487166 10.218323
19425   1 2 0.0 19.385590 15.599636 13.141244
19426   1 2 0.0 22.436685 18.992602 12.163272
19427   1 2 0.0 20.210451 13.299860 11.795789
19428   1 2 0.0 21.732530 11.178439 9.052430
19429   1 1 0.0 20.691276 25.113323 20.821111
19430   1 1 0.0 17.785555 18.320700 18.490352
19431   1 1 0.0 22.629870 24.731264 17.144987
19432   1 1 0.0 19.150040 21.523293 18.384045
19433   1 2 0.0 20.645553 23.839398 19.719719
19434   1 2 0.0 19.457032 20.738427 16.769603
19435   1 2 0.0 22.610766 20.752696 13.562720
19436   1 2 0.0 21.095883 22.838487 17.316903
19437   1 2 0.0 18.007701 22.611192 20.239824
19438   1 2 0.0 21.718356 25.266835 19.261852
19439   1 2 0.0 18.317521 20.187687 18.894369
19440   1 2 0.0 19.346612 17.788078 16.151010
19441   1 1 0.0 21.333128 31.619887 27.919691
19442   1 1 0.0 17.031723 25.613152 25.588932
19443   1 1 0.0 23.143819 30.828995 24.243567
19444   1 1 0.0 19.054376 28.446401 25.482625
19445   1 2 0.0 21.013917 30.385756 26.818299
19446   1 2 0.0 19.184996 27.613817 23.868183
19447   1 2 0.0 22.267688 26.948045 20.661300
19448   1 2 0.0 21.237945 29.311311 24.415483
19449   1 2 0.0 18.173352 29.754934 27.338404
19450   1 2 0.0 22.369155 31.548432 26.360432
19451   1 2 0.0 17.953567 27.321611 25.992949
19452   1 2 0.0 18.441301 24.756603 23.249590
19453   1 1 0.0 23.362214 37.835204 35.018271
19454   1 1 0.0 17.867304 32.896691 32.687512
19455   1 1 0.0 24.959895 36.672652 31.342147
19456   1 1 0.0 20.453054 35.227425 32.581205
19457   1 2 0.0 22.784521 36.698874 33.916879
19458   1 2 0.0 20.401162 34.386256 30.966763
19459   1 2 0.0 23.267917 33.071737 27.759880
19460   1 2 0.0 22.771715 35.601397 31.514063
19461   1 2 0.0 19.874755 36.695087 34.436984
19462   1 2 0.0 24.358492 37.542140 33.459012
19463   1 2 0.0 19.135697 34.366320 33.091529
19464   1 2 0.0 19.059148 31.756475 30.348170
19465   1 1 0.0 26.683162 43.467136 42.116851
19466   1 1 0.0 20.253023 39.828969 39.786092
19467   1 1 0.0 27.992738 41.987567 38.440727
19468   1 1 0.0 23.280333 41.547637 39.679785
19469   1 2 0.0 25.874139 42.482018 41.015459
19470   1 2 0.0 23.048369 40.737420 38.065343
19471   1 2 0.0 25.564441 38.835941 34.858460
19472   1 2 0.0 25.625102 41.413093 38.612643
19473   1 2 0.0 23.031941 43.105444 41.535564
19474   1 2 0.0 27.592864 42.966238 40.557592
19475   1 2 0.0 21.808347 40.990690 40.190109
19476   1 2 0.0 21.171113 38.458678 37.446750
19477   1 1 0.0 31.139878 48.250967 49.215431
19478   1 1 0.0 24.076745 46.084149 46.884672
19479   1 1 0.0 32.099795 46.523925 45.539307
19480   1 1 0.0 27.403323 47.109969 46.778365
19481   1 2 0.0 30.137552 47.463364 48.114039
19482   1 2 0.0 27.002189 46.368787 45.163923
19483   1 2 0.0 29.049316 43.969722 41.957040
19484   1 2 0.0 29.663989 46.473234 45.711223
19485   1 2 0.0 27.496513 48.684699 48.634144
19486   1 2 0.0 31.920246 47.565778 47.656172
19487   1 2 0.0 25.845895 46.883359 47.288689
19488   1 2 0.0 24.677929 44.548192 44.545330
