LAMMPS (10 Sep 2025)
  using 1 OpenMP thread(s) per MPI task
units metal
boundary p p p
dimension 3

atom_style full

variable step_calc equal 10000
variable step_calc_2 equal 50000
variable dump_dt equal 1

variable dump_write string dummp.lammpstrj

read_data au_dupl_p200.data
Reading data file ...
  orthogonal box = (-63.127775 -63.126684 0) to (63.125431 63.128705 200.6997)
  2 by 4 by 4 MPI processor grid
  reading atoms ...
  55104 atoms
Finding 1-2 1-3 1-4 neighbors ...
  special bond factors lj:    0        0        0       
  special bond factors coul:  0        0        0       
     0 = max # of 1-2 neighbors
     0 = max # of 1-3 neighbors
     0 = max # of 1-4 neighbors
     1 = max # of special neighbors
  special bonds CPU = 0.005 seconds
  read_data CPU = 0.231 seconds

mass 1 196.96657

pair_style lj/cut 10.0
pair_coeff 1 1 0.229 2.63



neighbor 2.0 bin



dump dummp all atom 1 ${dump_write}
dump dummp all atom 1 dummp.lammpstrj
dump_modify dummp sort id

group ext type 1
55104 atoms in group ext


minimize 1.0e-6 1.0e-6 1000 10000
Generated 0 of 0 mixed pair_coeff terms from geometric mixing rule
Neighbor list info ...
  update: every = 1 steps, delay = 0 steps, check = yes
  max neighbors/atom: 2000, page size: 100000
  master list distance cutoff = 12
  ghost atom cutoff = 12
  binsize = 6, bins = 22 22 34
  1 neighbor lists, perpetual/occasional/extra = 1 0 0
  (1) pair lj/cut, perpetual
      attributes: half, newton on
      pair build: half/bin/newton
      stencil: half/bin/3d
      bin: standard
Per MPI rank memory allocation (min/avg/max) = 7.464 | 8.589 | 10.06 Mbytes
   Step          Temp          E_pair         E_mol          TotEng         Press     
         0   0              60604370       0              60604370       1.2218563e+08
      1000   0             -92741.049      0             -92741.049     -1577.6669    
Loop time of 28.7441 on 32 procs for 1000 steps with 55104 atoms

98.6% CPU use with 32 MPI tasks x 1 OpenMP threads

Minimization stats:
  Stopping criterion = max iterations
  Energy initial, next-to-last, final = 
      60604370.1357375  -92738.0915857791  -92741.0491856754
  Force two-norm initial, final = 18906804 10.88661
  Force max component initial, final = 960522.25 1.3129895
  Final line search alpha, max atom move = 0.078306975 0.10281624
  Iterations, force evaluations = 1000 1023

MPI task timing breakdown:
Section |  min time  |  avg time  |  max time  |%varavg| %total
---------------------------------------------------------------
Pair    | 0.20247    | 6.247      | 15.296     | 200.4 | 21.73
Bond    | 5.5731e-05 | 0.00012636 | 0.00017345 |   0.0 |  0.00
Neigh   | 0.01012    | 0.3742     | 0.94868    |  50.8 |  1.30
Comm    | 0.41215    | 9.7988     | 16.133     | 167.0 | 34.09
Output  | 3.7631     | 7.7676     | 11.864     |  85.4 | 27.02
Modify  | 0          | 0          | 0          |   0.0 |  0.00
Other   |            | 4.556      |            |       | 15.85

Nlocal:           1722 ave        4094 max          70 min
Histogram: 8 4 0 8 0 2 2 4 0 4
Nghost:        3955.16 ave        7193 max        1135 min
Histogram: 4 4 0 6 2 4 8 0 0 4
Neighs:         296063 ave      768817 max        5848 min
Histogram: 8 4 4 4 1 1 4 2 0 4

Total # of neighbors = 9474030
Ave neighs/atom = 171.92999
Ave special neighs/atom = 0
Neighbor list builds = 42
Dangerous builds = 0

dump_modify dummp every 100



velocity ext create 300.0 312

fix T ext nvt temp 300.0 1000.0 0.05
thermo_style custom step temp press etotal vol lx ly lz
thermo 100
timestep 0.0005

run ${step_calc}
run 10000
Generated 0 of 0 mixed pair_coeff terms from geometric mixing rule
Per MPI rank memory allocation (min/avg/max) = 7.594 | 8.814 | 10.6 Mbytes
   Step          Temp          Press          TotEng         Volume           Lx             Ly             Lz      
      1000   300           -864.25368     -90604.263      3199182.8      126.25321      126.25539      200.6997     
      1100   114.02982      2415.3123     -90540.942      3199182.8      126.25321      126.25539      200.6997     
      1200   157.68423      1831.7838     -90416.781      3199182.8      126.25321      126.25539      200.6997     
      1300   168.22478      1739.3078     -90241.067      3199182.8      126.25321      126.25539      200.6997     
      1400   192.39205      1461.9228     -90034.794      3199182.8      126.25321      126.25539      200.6997     
      1500   208.91012      1395.4728     -89806.832      3199182.8      126.25321      126.25539      200.6997     
      1600   228.18579      1331.1826     -89557.507      3199182.8      126.25321      126.25539      200.6997     
      1700   247.81872      1295.6644     -89290.772      3199182.8      126.25321      126.25539      200.6997     
      1800   268.8998       1243.8703     -89010.171      3199182.8      126.25321      126.25539      200.6997     
      1900   290.79087      1160.6312     -88719.852      3199182.8      126.25321      126.25539      200.6997     
      2000   312.32481      1053.1482     -88425.965      3199182.8      126.25321      126.25539      200.6997     
      2100   332.44405      937.04635     -88134.961      3199182.8      126.25321      126.25539      200.6997     
      2200   353.92166      762.14042     -87852.735      3199182.8      126.25321      126.25539      200.6997     
      2300   370.81338      593.62054     -87591.617      3199182.8      126.25321      126.25539      200.6997     
      2400   387.41006      350.00169     -87353.527      3199182.8      126.25321      126.25539      200.6997     
      2500   400.78173      48.351321     -87150.819      3199182.8      126.25321      126.25539      200.6997     
      2600   411.46634     -305.87591     -86985.912      3199182.8      126.25321      126.25539      200.6997     
      2700   417.94491     -672.0515      -86852.582      3199182.8      126.25321      126.25539      200.6997     
      2800   425.8054      -1081.6587     -86731.824      3199182.8      126.25321      126.25539      200.6997     
      2900   430.93242     -1451.2351     -86623.678      3199182.8      126.25321      126.25539      200.6997     
      3000   437.86301     -1809.4593     -86507.708      3199182.8      126.25321      126.25539      200.6997     
      3100   443.52762     -2079.9592     -86379.184      3199182.8      126.25321      126.25539      200.6997     
      3200   453.1881      -2335.8329     -86239.82       3199182.8      126.25321      126.25539      200.6997     
      3300   459.05776     -2524.8477     -86110.251      3199182.8      126.25321      126.25539      200.6997     
      3400   464.83797     -2696.2924     -85978.926      3199182.8      126.25321      126.25539      200.6997     
      3500   473.34946     -2874.6304     -85837.498      3199182.8      126.25321      126.25539      200.6997     
      3600   482.2317      -3056.949      -85703.712      3199182.8      126.25321      126.25539      200.6997     
      3700   484.52262     -3105.0705     -85583.059      3199182.8      126.25321      126.25539      200.6997     
      3800   498.29637     -3253.8592     -85445.548      3199182.8      126.25321      126.25539      200.6997     
      3900   500.44382     -3252.608      -85339.993      3199182.8      126.25321      126.25539      200.6997     
      4000   506.52479     -3234.5841     -85217.358      3199182.8      126.25321      126.25539      200.6997     
      4100   518.34156     -3235.0684     -85078.697      3199182.8      126.25321      126.25539      200.6997     
      4200   524.48901     -3174.2916     -84971.051      3199182.8      126.25321      126.25539      200.6997     
      4300   528.74888     -3090.5845     -84874.658      3199182.8      126.25321      126.25539      200.6997     
      4400   536.25066     -2984.0956     -84759.257      3199182.8      126.25321      126.25539      200.6997     
      4500   545.26358     -2848.7506     -84637.581      3199182.8      126.25321      126.25539      200.6997     
      4600   552.84174     -2708.139      -84531.101      3199182.8      126.25321      126.25539      200.6997     
      4700   558.73372     -2564.1175     -84441.046      3199182.8      126.25321      126.25539      200.6997     
      4800   567.16043     -2450.4148     -84357.171      3199182.8      126.25321      126.25539      200.6997     
      4900   573.50282     -2319.7721     -84289.418      3199182.8      126.25321      126.25539      200.6997     
      5000   576.94201     -2116.9898     -84224.635      3199182.8      126.25321      126.25539      200.6997     
      5100   587.39728     -1943.1841     -84131.741      3199182.8      126.25321      126.25539      200.6997     
      5200   595.23986     -1756.7678     -84047.998      3199182.8      126.25321      126.25539      200.6997     
      5300   600.39905     -1571.7506     -83977.198      3199182.8      126.25321      126.25539      200.6997     
      5400   607.32737     -1415.2463     -83909.462      3199182.8      126.25321      126.25539      200.6997     
      5500   612.06965     -1155.7009     -83826.246      3199182.8      126.25321      126.25539      200.6997     
      5600   624.34542     -941.50076     -83719.788      3199182.8      126.25321      126.25539      200.6997     
      5700   628.79072     -686.9097      -83646.945      3199182.8      126.25321      126.25539      200.6997     
      5800   635.42105     -496.42198     -83577.418      3199182.8      126.25321      126.25539      200.6997     
      5900   641.91182     -289.40771     -83500.425      3199182.8      126.25321      126.25539      200.6997     
      6000   650.05071     -52.58646      -83410.845      3199182.8      126.25321      126.25539      200.6997     
      6100   658.2994       182.45886     -83324.064      3199182.8      126.25321      126.25539      200.6997     
      6200   664.72148      388.34992     -83259.282      3199182.8      126.25321      126.25539      200.6997     
      6300   667.73936      633.81255     -83196.804      3199182.8      126.25321      126.25539      200.6997     
      6400   676.3647       848.96938     -83099.447      3199182.8      126.25321      126.25539      200.6997     
      6500   685.88518      1073.2849     -82987.384      3199182.8      126.25321      126.25539      200.6997     
      6600   693.31877      1286.5979     -82891.577      3199182.8      126.25321      126.25539      200.6997     
      6700   697.14029      1509.5342     -82812.289      3199182.8      126.25321      126.25539      200.6997     
      6800   704.61205      1716.6406     -82714.695      3199182.8      126.25321      126.25539      200.6997     
      6900   713.22479      1945.4099     -82598.298      3199182.8      126.25321      126.25539      200.6997     
      7000   720.85665      2128.7955     -82492.834      3199182.8      126.25321      126.25539      200.6997     
      7100   727.65365      2245.4779     -82412.669      3199182.8      126.25321      126.25539      200.6997     
      7200   731.34047      2359.0287     -82333.699      3199182.8      126.25321      126.25539      200.6997     
      7300   742.61006      2373.755      -82237.77       3199182.8      126.25321      126.25539      200.6997     
      7400   748.55408      2444.7067     -82161.498      3199182.8      126.25321      126.25539      200.6997     
      7500   751.97858      2511.3878     -82088.027      3199182.8      126.25321      126.25539      200.6997     
      7600   760.48059      2547.1109     -81983.814      3199182.8      126.25321      126.25539      200.6997     
      7700   769.8137       2571.1597     -81863.961      3199182.8      126.25321      126.25539      200.6997     
      7800   774.37292      2592.8457     -81757.395      3199182.8      126.25321      126.25539      200.6997     
      7900   784.66992      2478.3872     -81646.108      3199182.8      126.25321      126.25539      200.6997     
      8000   789.8255       2358.3538     -81552.464      3199182.8      126.25321      126.25539      200.6997     
      8100   797.58187      2141.9436     -81469.327      3199182.8      126.25321      126.25539      200.6997     
      8200   796.09588      2083.0847     -81379.929      3199182.8      126.25321      126.25539      200.6997     
      8300   810.94985      1938.8721     -81216.691      3199182.8      126.25321      126.25539      200.6997     
      8400   821.01673      1838.7918     -81059.816      3199182.8      126.25321      126.25539      200.6997     
      8500   825.73777      1675.2417     -80953.1        3199182.8      126.25321      126.25539      200.6997     
      8600   831.27065      1424.1704     -80863.877      3199182.8      126.25321      126.25539      200.6997     
      8700   834.03106      1222.6428     -80761.8        3199182.8      126.25321      126.25539      200.6997     
      8800   844.8314       1018.741      -80602.911      3199182.8      126.25321      126.25539      200.6997     
      8900   853.19114      846.49423     -80438.722      3199182.8      126.25321      126.25539      200.6997     
      9000   860.25489      649.89484     -80298.001      3199182.8      126.25321      126.25539      200.6997     
      9100   865.6601       464.72645     -80157.201      3199182.8      126.25321      126.25539      200.6997     
      9200   874.87482      206.23501     -80008.409      3199182.8      126.25321      126.25539      200.6997     
      9300   876.20542      91.357618     -79870.708      3199182.8      126.25321      126.25539      200.6997     
      9400   889.72085     -154.30546     -79705.851      3199182.8      126.25321      126.25539      200.6997     
      9500   893.87456     -297.16411     -79564.209      3199182.8      126.25321      126.25539      200.6997     
      9600   903.93173     -526.61878     -79420.405      3199182.8      126.25321      126.25539      200.6997     
      9700   906.11222     -619.44635     -79291.569      3199182.8      126.25321      126.25539      200.6997     
      9800   913.2336      -728.53438     -79145.144      3199182.8      126.25321      126.25539      200.6997     
      9900   924.79984     -885.44649     -78977.394      3199182.8      126.25321      126.25539      200.6997     
     10000   927.3564      -950.28919     -78839.08       3199182.8      126.25321      126.25539      200.6997     
     10100   933.86952     -965.82955     -78678.27       3199182.8      126.25321      126.25539      200.6997     
     10200   946.98284     -1039.2959     -78504.194      3199182.8      126.25321      126.25539      200.6997     
     10300   957.13025     -1199.6578     -78383.66       3199182.8      126.25321      126.25539      200.6997     
     10400   953.06691     -1257.8876     -78323.683      3199182.8      126.25321      126.25539      200.6997     
     10500   956.49941     -1276.3503     -78210.271      3199182.8      126.25321      126.25539      200.6997     
     10600   978.34939     -1382.9915     -78026.981      3199182.8      126.25321      126.25539      200.6997     
     10700   978.79287     -1233.0492     -77900.881      3199182.8      126.25321      126.25539      200.6997     
     10800   982.01134     -1154.2618     -77787.626      3199182.8      126.25321      126.25539      200.6997     
     10900   993.37945     -1141.0115     -77638.158      3199182.8      126.25321      126.25539      200.6997     
     11000   1001.6178     -1096.1695     -77491.98       3199182.8      126.25321      126.25539      200.6997     
Loop time of 114.545 on 32 procs for 10000 steps with 55104 atoms

Performance: 3.771 ns/day, 6.364 hours/ns, 87.302 timesteps/s, 4.811 Matom-step/s
99.9% CPU use with 32 MPI tasks x 1 OpenMP threads

MPI task timing breakdown:
Section |  min time  |  avg time  |  max time  |%varavg| %total
---------------------------------------------------------------
Pair    | 1.0322     | 42.677     | 107.74     | 537.5 | 37.26
Bond    | 0.00044041 | 0.00098797 | 0.0015389  |   0.0 |  0.00
Neigh   | 0.0068774  | 0.30551    | 0.80258    |  46.8 |  0.27
Comm    | 3.3464     | 67.895     | 108.63     | 424.2 | 59.27
Output  | 0.28317    | 0.70351    | 1.1293     |  29.6 |  0.61
Modify  | 0.67305    | 1.9716     | 3.5185     |  59.9 |  1.72
Other   |            | 0.9923     |            |       |  0.87

Nlocal:           1722 ave        3969 max          71 min
Histogram: 8 3 1 8 0 0 4 1 3 4
Nghost:        3990.41 ave        7121 max        1217 min
Histogram: 4 4 0 7 1 4 8 0 0 4
Neighs:         278906 ave      702165 max        6239 min
Histogram: 8 4 2 6 0 2 3 3 0 4

Total # of neighbors = 8925007
Ave neighs/atom = 161.96659
Ave special neighs/atom = 0
Neighbor list builds = 35
Dangerous builds = 0


velocity ext create 1000.0 1023

unfix T
fix T ext nvt temp 1000.0 1000.0 0.1
thermo_style custom step temp press etotal vol lx ly lz
thermo 100
timestep 0.001

run ${step_calc_2}
run 50000
Generated 0 of 0 mixed pair_coeff terms from geometric mixing rule
Per MPI rank memory allocation (min/avg/max) = 7.594 | 8.814 | 10.6 Mbytes
   Step          Temp          Press          TotEng         Volume           Lx             Ly             Lz      
     11000   1000          -1100.0167     -77503.503      3199182.8      126.25321      126.25539      200.6997     
     11100   1000.1176     -1035.5407     -77479.467      3199182.8      126.25321      126.25539      200.6997     
     11200   1004.8924     -997.1441      -77429.514      3199182.8      126.25321      126.25539      200.6997     
     11300   1000.2358     -803.05025     -77432.847      3199182.8      126.25321      126.25539      200.6997     
     11400   1003.196      -641.57392     -77439.15       3199182.8      126.25321      126.25539      200.6997     
     11500   1002.6223     -556.99681     -77484.367      3199182.8      126.25321      126.25539      200.6997     
     11600   1000.3287     -398.10014     -77532.883      3199182.8      126.25321      126.25539      200.6997     
     11700   1001.9685     -210.1881      -77557.622      3199182.8      126.25321      126.25539      200.6997     
     11800   1000.0097     -42.664559     -77609.367      3199182.8      126.25321      126.25539      200.6997     
     11900   1002.7557      81.1573       -77651.321      3199182.8      126.25321      126.25539      200.6997     
     12000   1002.2751      269.93122     -77690.151      3199182.8      126.25321      126.25539      200.6997     
     12100   1002.8685      420.45917     -77721.885      3199182.8      126.25321      126.25539      200.6997     
     12200   999.74086      636.21762     -77755.884      3199182.8      126.25321      126.25539      200.6997     
     12300   999.60386      784.00636     -77781.691      3199182.8      126.25321      126.25539      200.6997     
     12400   1000.7374      879.81939     -77808.218      3199182.8      126.25321      126.25539      200.6997     
     12500   1004.5758      867.46321     -77834.904      3199182.8      126.25321      126.25539      200.6997     
     12600   998.3352       936.73562     -77869.338      3199182.8      126.25321      126.25539      200.6997     
     12700   998.19849      931.10516     -77871.811      3199182.8      126.25321      126.25539      200.6997     
     12800   1001.8181      871.49095     -77853.877      3199182.8      126.25321      126.25539      200.6997     
     12900   1001.3633      757.26101     -77858.96       3199182.8      126.25321      126.25539      200.6997     
     13000   996.8718       558.19023     -77915.645      3199182.8      126.25321      126.25539      200.6997     
     13100   999.4576       382.86489     -77903.113      3199182.8      126.25321      126.25539      200.6997     
     13200   1001.3353      312.98439     -77862.024      3199182.8      126.25321      126.25539      200.6997     
     13300   1001.1194      275.96539     -77832.105      3199182.8      126.25321      126.25539      200.6997     
     13400   1002.9258      158.85884     -77805.931      3199182.8      126.25321      126.25539      200.6997     
     13500   1002.836       0.90004229    -77790.296      3199182.8      126.25321      126.25539      200.6997     
     13600   1002.7424     -75.107254     -77744.951      3199182.8      126.25321      126.25539      200.6997     
     13700   1004.1658     -221.31533     -77702.851      3199182.8      126.25321      126.25539      200.6997     
     13800   997.49108     -334.68013     -77712.255      3199182.8      126.25321      126.25539      200.6997     
     13900   997.84695     -496.22929     -77700.485      3199182.8      126.25321      126.25539      200.6997     
     14000   1001.304      -592.79392     -77642.777      3199182.8      126.25321      126.25539      200.6997     
     14100   1000.9535     -781.14015     -77647.666      3199182.8      126.25321      126.25539      200.6997     
     14200   1001.9693     -935.70946     -77665.169      3199182.8      126.25321      126.25539      200.6997     
     14300   995.03168     -914.45834     -77679.481      3199182.8      126.25321      126.25539      200.6997     
     14400   999.39491     -1000.0231     -77661.122      3199182.8      126.25321      126.25539      200.6997     
     14500   1005.9749     -971.80121     -77602.757      3199182.8      126.25321      126.25539      200.6997     
     14600   1006.7222     -918.55951     -77563.18       3199182.8      126.25321      126.25539      200.6997     
     14700   1002.3634     -833.15105     -77579.094      3199182.8      126.25321      126.25539      200.6997     
     14800   1001.7602     -895.39        -77617.938      3199182.8      126.25321      126.25539      200.6997     
     14900   1000.0897     -872.39568     -77642.929      3199182.8      126.25321      126.25539      200.6997     
     15000   999.28237     -800.87336     -77652.771      3199182.8      126.25321      126.25539      200.6997     
     15100   1004.6951     -804.68596     -77678.69       3199182.8      126.25321      126.25539      200.6997     
     15200   1002.9567     -658.3441      -77736.556      3199182.8      126.25321      126.25539      200.6997     
     15300   1001.7538     -450.48566     -77770.283      3199182.8      126.25321      126.25539      200.6997     
     15400   1000.8527     -369.48812     -77807.557      3199182.8      126.25321      126.25539      200.6997     
     15500   1000.3261     -278.72685     -77835.036      3199182.8      126.25321      126.25539      200.6997     
     15600   997.91229     -188.90487     -77848.177      3199182.8      126.25321      126.25539      200.6997     
     15700   1001.8315     -122.85329     -77842.431      3199182.8      126.25321      126.25539      200.6997     
     15800   1002.9873     -36.694803     -77855.3        3199182.8      126.25321      126.25539      200.6997     
     15900   1000.3529      2.3537863     -77915.877      3199182.8      126.25321      126.25539      200.6997     
     16000   999.5098       111.42572     -77938.254      3199182.8      126.25321      126.25539      200.6997     
     16100   1003.9238      72.325578     -77954.905      3199182.8      126.25321      126.25539      200.6997     
     16200   998.1562       77.159648     -78003.646      3199182.8      126.25321      126.25539      200.6997     
     16300   996.87498      78.411166     -78021.28       3199182.8      126.25321      126.25539      200.6997     
     16400   1003.9721      14.095846     -78000.703      3199182.8      126.25321      126.25539      200.6997     
     16500   1003.2216     -0.22198322    -77999.093      3199182.8      126.25321      126.25539      200.6997     
     16600   1000.8847      1.8967771     -78014.706      3199182.8      126.25321      126.25539      200.6997     
     16700   1002.2352     -47.742261     -78029.519      3199182.8      126.25321      126.25539      200.6997     
     16800   991.65992      63.561819     -78067.497      3199182.8      126.25321      126.25539      200.6997     
     16900   998.47456     -14.84293      -78043.378      3199182.8      126.25321      126.25539      200.6997     
     17000   997.36733      99.139794     -77986.57       3199182.8      126.25321      126.25539      200.6997     
     17100   1002.9095     -14.693051     -77975.864      3199182.8      126.25321      126.25539      200.6997     
     17200   1004.5556     -197.9605      -78005.45       3199182.8      126.25321      126.25539      200.6997     
     17300   998.36454     -203.983       -78037.587      3199182.8      126.25321      126.25539      200.6997     
     17400   998.84436     -280.39811     -78033.842      3199182.8      126.25321      126.25539      200.6997     
     17500   999.57384     -363.86524     -78037.228      3199182.8      126.25321      126.25539      200.6997     
     17600   999.88974     -393.55603     -78036.346      3199182.8      126.25321      126.25539      200.6997     
     17700   1000.1879     -252.21762     -77988.178      3199182.8      126.25321      126.25539      200.6997     
     17800   1007.6962     -245.91757     -77947.911      3199182.8      126.25321      126.25539      200.6997     
     17900   1002.3449     -282.19632     -77998.603      3199182.8      126.25321      126.25539      200.6997     
     18000   1001.1295     -366.25636     -78040.354      3199182.8      126.25321      126.25539      200.6997     
     18100   1005.7139     -492.46311     -78060.28       3199182.8      126.25321      126.25539      200.6997     
     18200   998.29413     -405.42604     -78088.947      3199182.8      126.25321      126.25539      200.6997     
     18300   997.98034     -356.83756     -78111.841      3199182.8      126.25321      126.25539      200.6997     
     18400   996.61177     -329.38173     -78145.282      3199182.8      126.25321      126.25539      200.6997     
     18500   999.51432     -214.08876     -78131.978      3199182.8      126.25321      126.25539      200.6997     
     18600   1006.5426     -90.765067     -78098.338      3199182.8      126.25321      126.25539      200.6997     
     18700   1001.2269     -95.782659     -78150.744      3199182.8      126.25321      126.25539      200.6997     
     18800   997.91587     -115.26984     -78176.59       3199182.8      126.25321      126.25539      200.6997     
     18900   998.38877     -13.756461     -78154.068      3199182.8      126.25321      126.25539      200.6997     
     19000   1001.0884      44.790409     -78141.179      3199182.8      126.25321      126.25539      200.6997     
     19100   1002.7581     -93.363203     -78196.343      3199182.8      126.25321      126.25539      200.6997     
     19200   997.5035      -20.344386     -78231.791      3199182.8      126.25321      126.25539      200.6997     
     19300   1003.4899     -37.984457     -78220.884      3199182.8      126.25321      126.25539      200.6997     
     19400   1000.3233      4.1590053     -78235.374      3199182.8      126.25321      126.25539      200.6997     
     19500   999.8616      -136.06946     -78282.248      3199182.8      126.25321      126.25539      200.6997     
     19600   997.22158     -128.80713     -78292.269      3199182.8      126.25321      126.25539      200.6997     
     19700   999.11098     -87.30318      -78266.76       3199182.8      126.25321      126.25539      200.6997     
     19800   1003.1825     -138.01843     -78246.347      3199182.8      126.25321      126.25539      200.6997     
     19900   998.35216      8.6801988     -78251.969      3199182.8      126.25321      126.25539      200.6997     
     20000   994.39794      97.555327     -78274.75       3199182.8      126.25321      126.25539      200.6997     
     20100   993.40211      77.917182     -78322.804      3199182.8      126.25321      126.25539      200.6997     
     20200   996.45331      25.83613      -78349.053      3199182.8      126.25321      126.25539      200.6997     
     20300   999.08151      21.546854     -78338.386      3199182.8      126.25321      126.25539      200.6997     
     20400   1003.6742      9.2352703     -78322.709      3199182.8      126.25321      126.25539      200.6997     
     20500   999.07127     -1.7691645     -78338.363      3199182.8      126.25321      126.25539      200.6997     
     20600   999.05079     -27.327787     -78354.024      3199182.8      126.25321      126.25539      200.6997     
     20700   999.0356      -17.93799      -78339.782      3199182.8      126.25321      126.25539      200.6997     
     20800   1004.1595      18.164901     -78293.163      3199182.8      126.25321      126.25539      200.6997     
     20900   998.33024      47.488675     -78313.582      3199182.8      126.25321      126.25539      200.6997     
     21000   1004.7156     -145.76209     -78337.472      3199182.8      126.25321      126.25539      200.6997     
     21100   998.25212     -95.459544     -78380.431      3199182.8      126.25321      126.25539      200.6997     
     21200   990.95461     -81.667358     -78428.04       3199182.8      126.25321      126.25539      200.6997     
     21300   994.83143     -76.872001     -78416.773      3199182.8      126.25321      126.25539      200.6997     
     21400   1001.5848      38.892861     -78355.773      3199182.8      126.25321      126.25539      200.6997     
     21500   1002.3962      87.497467     -78349.9        3199182.8      126.25321      126.25539      200.6997     
     21600   1003.478       19.250061     -78376.784      3199182.8      126.25321      126.25539      200.6997     
     21700   997.24936     -49.522603     -78438.355      3199182.8      126.25321      126.25539      200.6997     
     21800   1006.76       -211.50405     -78443.825      3199182.8      126.25321      126.25539      200.6997     
     21900   1000.2103     -117.5936      -78451.195      3199182.8      126.25321      126.25539      200.6997     
     22000   997.60793     -105.59216     -78430.338      3199182.8      126.25321      126.25539      200.6997     
     22100   998.85478     -53.191619     -78384.003      3199182.8      126.25321      126.25539      200.6997     
     22200   1002.6546     -19.29041      -78341.128      3199182.8      126.25321      126.25539      200.6997     
     22300   1004.9568     -95.53759      -78350.702      3199182.8      126.25321      126.25539      200.6997     
     22400   998.946       -30.202649     -78379.141      3199182.8      126.25321      126.25539      200.6997     
     22500   1002.573      -105.4072      -78395.381      3199182.8      126.25321      126.25539      200.6997     
     22600   1001.75       -161.97891     -78444.302      3199182.8      126.25321      126.25539      200.6997     
     22700   999.50124     -185.10007     -78480.15       3199182.8      126.25321      126.25539      200.6997     
     22800   1001.6333     -243.11652     -78477.632      3199182.8      126.25321      126.25539      200.6997     
     22900   997.31559     -198.99178     -78471.428      3199182.8      126.25321      126.25539      200.6997     
     23000   1000.9931     -174.46971     -78433.811      3199182.8      126.25321      126.25539      200.6997     
     23100   1008.1965     -173.14451     -78365.647      3199182.8      126.25321      126.25539      200.6997     
     23200   1003.2419     -105.90073     -78393.378      3199182.8      126.25321      126.25539      200.6997     
     23300   1006.2162     -287.64055     -78429.98       3199182.8      126.25321      126.25539      200.6997     
     23400   998.51797     -293.50637     -78477.398      3199182.8      126.25321      126.25539      200.6997     
     23500   995.73641     -228.43729     -78488.639      3199182.8      126.25321      126.25539      200.6997     
     23600   1001.1139     -220.35306     -78481.16       3199182.8      126.25321      126.25539      200.6997     
     23700   1002.9196     -219.17666     -78507.727      3199182.8      126.25321      126.25539      200.6997     
     23800   997.09456     -195.7328      -78565.347      3199182.8      126.25321      126.25539      200.6997     
     23900   999.32638     -157.37109     -78557.659      3199182.8      126.25321      126.25539      200.6997     
     24000   1001.7783     -80.66         -78528.439      3199182.8      126.25321      126.25539      200.6997     
     24100   1002.0458      13.287208     -78505.225      3199182.8      126.25321      126.25539      200.6997     
     24200   1004.0755     -178.22892     -78550.79       3199182.8      126.25321      126.25539      200.6997     
     24300   996.15912     -209.64441     -78603.535      3199182.8      126.25321      126.25539      200.6997     
     24400   997.43342     -187.19265     -78590.891      3199182.8      126.25321      126.25539      200.6997     
     24500   1002.7609     -147.37475     -78561.852      3199182.8      126.25321      126.25539      200.6997     
     24600   1001.2427     -43.642421     -78570.135      3199182.8      126.25321      126.25539      200.6997     
     24700   996.20574     -140.23885     -78631.762      3199182.8      126.25321      126.25539      200.6997     
     24800   995.08354     -193.84888     -78650.447      3199182.8      126.25321      126.25539      200.6997     
     24900   998.78293     -147.73432     -78626.799      3199182.8      126.25321      126.25539      200.6997     
     25000   999.30226     -58.50088      -78604.511      3199182.8      126.25321      126.25539      200.6997     
     25100   999.07217      1.2332433     -78613.44       3199182.8      126.25321      126.25539      200.6997     
     25200   998.87629      13.161624     -78625.806      3199182.8      126.25321      126.25539      200.6997     
     25300   1000.4989     -64.507394     -78636.915      3199182.8      126.25321      126.25539      200.6997     
     25400   998.50666     -123.31969     -78670.793      3199182.8      126.25321      126.25539      200.6997     
     25500   998.35672     -163.34816     -78712.871      3199182.8      126.25321      126.25539      200.6997     
     25600   999.73812     -188.17188     -78718.017      3199182.8      126.25321      126.25539      200.6997     
     25700   1002.713      -88.124819     -78655.864      3199182.8      126.25321      126.25539      200.6997     
     25800   1000.6297      41.482932     -78634.553      3199182.8      126.25321      126.25539      200.6997     
     25900   1002.7623     -58.649681     -78653.162      3199182.8      126.25321      126.25539      200.6997     
     26000   996.77337     -63.565335     -78705.612      3199182.8      126.25321      126.25539      200.6997     
     26100   999.18043     -173.91048     -78726.446      3199182.8      126.25321      126.25539      200.6997     
     26200   1002.0251     -253.94385     -78730.67       3199182.8      126.25321      126.25539      200.6997     
     26300   998.82136     -225.05184     -78733.769      3199182.8      126.25321      126.25539      200.6997     
     26400   999.57852     -83.369856     -78677.508      3199182.8      126.25321      126.25539      200.6997     
     26500   1005.1497     -119.02874     -78646.142      3199182.8      126.25321      126.25539      200.6997     
     26600   1001.0568     -161.47004     -78676.802      3199182.8      126.25321      126.25539      200.6997     
     26700   997.34806     -265.30352     -78714.207      3199182.8      126.25321      126.25539      200.6997     
     26800   1000.619      -340.4244      -78721.959      3199182.8      126.25321      126.25539      200.6997     
     26900   1001.8091     -349.4458      -78732.571      3199182.8      126.25321      126.25539      200.6997     
     27000   995.02337     -270.3377      -78797.125      3199182.8      126.25321      126.25539      200.6997     
     27100   993.88043     -246.81269     -78816.657      3199182.8      126.25321      126.25539      200.6997     
     27200   1005.6439     -298.47335     -78765.422      3199182.8      126.25321      126.25539      200.6997     
     27300   998.95808     -147.13641     -78753.814      3199182.8      126.25321      126.25539      200.6997     
     27400   1000.847      -142.54669     -78754.888      3199182.8      126.25321      126.25539      200.6997     
     27500   999.29084     -79.013866     -78776.182      3199182.8      126.25321      126.25539      200.6997     
     27600   1000.2044     -206.41739     -78834.686      3199182.8      126.25321      126.25539      200.6997     
     27700   994.81797     -164.46745     -78861.688      3199182.8      126.25321      126.25539      200.6997     
     27800   1001.022      -189.97698     -78832.493      3199182.8      126.25321      126.25539      200.6997     
     27900   998.13182     -51.956784     -78818.456      3199182.8      126.25321      126.25539      200.6997     
     28000   999.05894     -58.983911     -78808.649      3199182.8      126.25321      126.25539      200.6997     
     28100   999.79495     -57.363642     -78808.119      3199182.8      126.25321      126.25539      200.6997     
     28200   998.98819      22.877413     -78821.558      3199182.8      126.25321      126.25539      200.6997     
     28300   1001.4035      17.459642     -78832.78       3199182.8      126.25321      126.25539      200.6997     
     28400   1000.7327      44.668869     -78852.004      3199182.8      126.25321      126.25539      200.6997     
     28500   1002.3505      14.437885     -78879.039      3199182.8      126.25321      126.25539      200.6997     
     28600   998.27146     -10.477924     -78920.935      3199182.8      126.25321      126.25539      200.6997     
     28700   1000.1179      28.458397     -78908.569      3199182.8      126.25321      126.25539      200.6997     
     28800   1003.9869      87.153688     -78868.425      3199182.8      126.25321      126.25539      200.6997     
     28900   1002.2042      116.48348     -78861.419      3199182.8      126.25321      126.25539      200.6997     
     29000   997.97514     -11.710286     -78932.459      3199182.8      126.25321      126.25539      200.6997     
     29100   998.45016     -158.60652     -78965.458      3199182.8      126.25321      126.25539      200.6997     
     29200   1001.2728     -128.02279     -78951.337      3199182.8      126.25321      126.25539      200.6997     
     29300   1000.6057      15.813667     -78913.635      3199182.8      126.25321      126.25539      200.6997     
     29400   1006.6962      0.99772408    -78882.137      3199182.8      126.25321      126.25539      200.6997     
     29500   1002.1162     -43.181692     -78918.309      3199182.8      126.25321      126.25539      200.6997     
     29600   1000.5397     -190.43349     -78953.033      3199182.8      126.25321      126.25539      200.6997     
     29700   1000.5843     -222.34111     -78947.239      3199182.8      126.25321      126.25539      200.6997     
     29800   997.71114     -124.49316     -78942.719      3199182.8      126.25321      126.25539      200.6997     
     29900   1001.3114     -58.555888     -78911.902      3199182.8      126.25321      126.25539      200.6997     
     30000   1008.955      -61.137269     -78887.706      3199182.8      126.25321      126.25539      200.6997     
     30100   998.55733     -6.2573168     -78951.044      3199182.8      126.25321      126.25539      200.6997     
     30200   1002.6703     -115.37107     -78957.738      3199182.8      126.25321      126.25539      200.6997     
     30300   999.72179     -176.41377     -78993.77       3199182.8      126.25321      126.25539      200.6997     
     30400   996.36445     -191.66324     -79015.065      3199182.8      126.25321      126.25539      200.6997     
     30500   1002.5392     -172.12363     -78986.231      3199182.8      126.25321      126.25539      200.6997     
     30600   1001.9583     -44.382714     -78953.282      3199182.8      126.25321      126.25539      200.6997     
     30700   1004.4735     -8.6302643     -78909.341      3199182.8      126.25321      126.25539      200.6997     
     30800   1012.1407      7.6453412     -78851.71       3199182.8      126.25321      126.25539      200.6997     
     30900   1008.1514      8.6177291     -78906.631      3199182.8      126.25321      126.25539      200.6997     
     31000   1003.0893      5.7786612     -78966.402      3199182.8      126.25321      126.25539      200.6997     
     31100   999.84504      59.745437     -79015.622      3199182.8      126.25321      126.25539      200.6997     
     31200   998.1965       72.172148     -79053.316      3199182.8      126.25321      126.25539      200.6997     
     31300   997.14688      56.883065     -79076.474      3199182.8      126.25321      126.25539      200.6997     
     31400   997.64722      60.534809     -79096.696      3199182.8      126.25321      126.25539      200.6997     
     31500   996.25769      64.871636     -79116.281      3199182.8      126.25321      126.25539      200.6997     
     31600   999.91848     -3.2654116     -79129.797      3199182.8      126.25321      126.25539      200.6997     
     31700   998.48968      30.192444     -79139.191      3199182.8      126.25321      126.25539      200.6997     
     31800   1001.8442      140.17686     -79117.528      3199182.8      126.25321      126.25539      200.6997     
     31900   1007.0087      219.34155     -79082.625      3199182.8      126.25321      126.25539      200.6997     
     32000   1001.3866      279.11341     -79125.859      3199182.8      126.25321      126.25539      200.6997     
     32100   999.59528      311.12378     -79164.277      3199182.8      126.25321      126.25539      200.6997     
     32200   1002.4609      233.78912     -79186.18       3199182.8      126.25321      126.25539      200.6997     
     32300   998.99449      208.4584      -79218.142      3199182.8      126.25321      126.25539      200.6997     
     32400   998.21774      169.07301     -79224.346      3199182.8      126.25321      126.25539      200.6997     
     32500   1002.1716      175.19178     -79177.88       3199182.8      126.25321      126.25539      200.6997     
     32600   1004.3188      173.30289     -79135.632      3199182.8      126.25321      126.25539      200.6997     
     32700   1003.9051      117.40902     -79157.101      3199182.8      126.25321      126.25539      200.6997     
     32800   997.38646      147.98388     -79184.973      3199182.8      126.25321      126.25539      200.6997     
     32900   1002.9781      22.196911     -79182.758      3199182.8      126.25321      126.25539      200.6997     
     33000   1000.9769     -5.6777254     -79185.058      3199182.8      126.25321      126.25539      200.6997     
     33100   995.31233     -42.482834     -79199.56       3199182.8      126.25321      126.25539      200.6997     
     33200   995.59313     -55.802399     -79193.168      3199182.8      126.25321      126.25539      200.6997     
     33300   999.52039     -75.187092     -79175.436      3199182.8      126.25321      126.25539      200.6997     
     33400   997.93799     -168.42322     -79173.007      3199182.8      126.25321      126.25539      200.6997     
     33500   1000.6311     -265.41158     -79172.835      3199182.8      126.25321      126.25539      200.6997     
     33600   1001.4005     -254.2092      -79165.45       3199182.8      126.25321      126.25539      200.6997     
     33700   1007.4585     -150.10008     -79128.184      3199182.8      126.25321      126.25539      200.6997     
     33800   1003.6094     -23.540344     -79135.481      3199182.8      126.25321      126.25539      200.6997     
     33900   1003.848      -135.00538     -79193.117      3199182.8      126.25321      126.25539      200.6997     
     34000   1001.389      -93.06411      -79227.485      3199182.8      126.25321      126.25539      200.6997     
     34100   1000.6075      0.82340861    -79254.317      3199182.8      126.25321      126.25539      200.6997     
     34200   1000.6769     -15.335557     -79285.899      3199182.8      126.25321      126.25539      200.6997     
     34300   999.11304     -5.9096195     -79314.834      3199182.8      126.25321      126.25539      200.6997     
     34400   998.91463      17.426766     -79338.993      3199182.8      126.25321      126.25539      200.6997     
     34500   995.20818     -32.939302     -79385.662      3199182.8      126.25321      126.25539      200.6997     
     34600   993.09299      15.827485     -79375.51       3199182.8      126.25321      126.25539      200.6997     
     34700   1002.3087     -10.019707     -79313.921      3199182.8      126.25321      126.25539      200.6997     
     34800   1003.6325     -93.787314     -79304.543      3199182.8      126.25321      126.25539      200.6997     
     34900   993.56002      0.25540861    -79328.927      3199182.8      126.25321      126.25539      200.6997     
     35000   1000.6737     -46.696121     -79317.45       3199182.8      126.25321      126.25539      200.6997     
     35100   1001.7242     -6.1269586     -79293.362      3199182.8      126.25321      126.25539      200.6997     
     35200   1005.3511     -30.211884     -79262.741      3199182.8      126.25321      126.25539      200.6997     
     35300   1002.4842     -30.963705     -79276.703      3199182.8      126.25321      126.25539      200.6997     
     35400   998.88211     -140.48194     -79339.15       3199182.8      126.25321      126.25539      200.6997     
     35500   996.39665     -104.25761     -79348.258      3199182.8      126.25321      126.25539      200.6997     
     35600   1000.2692     -83.965424     -79328.807      3199182.8      126.25321      126.25539      200.6997     
     35700   1001.4163     -38.016926     -79308.343      3199182.8      126.25321      126.25539      200.6997     
     35800   1003.5342      52.669251     -79271.738      3199182.8      126.25321      126.25539      200.6997     
     35900   1004.889       41.185631     -79267.529      3199182.8      126.25321      126.25539      200.6997     
     36000   1000.2387     -20.810616     -79322.997      3199182.8      126.25321      126.25539      200.6997     
     36100   1003.1576     -105.34344     -79358.754      3199182.8      126.25321      126.25539      200.6997     
     36200   998.44406     -44.678415     -79388.989      3199182.8      126.25321      126.25539      200.6997     
     36300   1001.7405     -55.458028     -79393.391      3199182.8      126.25321      126.25539      200.6997     
     36400   998.19911      35.262654     -79411.273      3199182.8      126.25321      126.25539      200.6997     
     36500   991.03363      46.74119      -79470.632      3199182.8      126.25321      126.25539      200.6997     
     36600   995.95635     -59.97736      -79501.853      3199182.8      126.25321      126.25539      200.6997     
     36700   995.01892      55.769588     -79484.43       3199182.8      126.25321      126.25539      200.6997     
     36800   999.71358      187.5602      -79420.119      3199182.8      126.25321      126.25539      200.6997     
     36900   1004.5607      109.95833     -79415.208      3199182.8      126.25321      126.25539      200.6997     
     37000   1000.5524      41.538753     -79451.716      3199182.8      126.25321      126.25539      200.6997     
     37100   998.82137     -82.576742     -79473.515      3199182.8      126.25321      126.25539      200.6997     
     37200   995.44062     -22.664534     -79471.695      3199182.8      126.25321      126.25539      200.6997     
     37300   1002.1057      78.413015     -79408.27       3199182.8      126.25321      126.25539      200.6997     
     37400   1007.2781      75.338958     -79390.483      3199182.8      126.25321      126.25539      200.6997     
     37500   998.73272      73.373643     -79435.811      3199182.8      126.25321      126.25539      200.6997     
     37600   1000.7165     -27.454712     -79452.798      3199182.8      126.25321      126.25539      200.6997     
     37700   1000.1506     -112.20108     -79475.287      3199182.8      126.25321      126.25539      200.6997     
     37800   991.87225     -75.720688     -79514.672      3199182.8      126.25321      126.25539      200.6997     
     37900   995.25528      5.0981131     -79501.699      3199182.8      126.25321      126.25539      200.6997     
     38000   1007.6058     -3.8206579     -79440.199      3199182.8      126.25321      126.25539      200.6997     
     38100   998.96291      171.63107     -79455.16       3199182.8      126.25321      126.25539      200.6997     
     38200   1000.2609      56.282964     -79490.834      3199182.8      126.25321      126.25539      200.6997     
     38300   995.24696      30.077538     -79526.004      3199182.8      126.25321      126.25539      200.6997     
     38400   998.26762      9.288375      -79517.608      3199182.8      126.25321      126.25539      200.6997     
     38500   1002.8264      125.46944     -79473.306      3199182.8      126.25321      126.25539      200.6997     
     38600   1009.2956      209.21784     -79417.637      3199182.8      126.25321      126.25539      200.6997     
     38700   1006.2482      268.20886     -79433.225      3199182.8      126.25321      126.25539      200.6997     
     38800   1001.6317      246.29779     -79471.968      3199182.8      126.25321      126.25539      200.6997     
     38900   1002.035       161.33279     -79515.292      3199182.8      126.25321      126.25539      200.6997     
     39000   995.97634      214.43624     -79553.681      3199182.8      126.25321      126.25539      200.6997     
     39100   1001.1644      198.52389     -79546.813      3199182.8      126.25321      126.25539      200.6997     
     39200   1002.9026      250.84544     -79528.71       3199182.8      126.25321      126.25539      200.6997     
     39300   996.66404      271.29671     -79550.327      3199182.8      126.25321      126.25539      200.6997     
     39400   996.03046      89.128032     -79585.677      3199182.8      126.25321      126.25539      200.6997     
     39500   1000.4367     -2.0753836     -79582.039      3199182.8      126.25321      126.25539      200.6997     
     39600   1000.0648      56.756845     -79544.094      3199182.8      126.25321      126.25539      200.6997     
     39700   1002.1716      115.95245     -79501.014      3199182.8      126.25321      126.25539      200.6997     
     39800   1000.6558      95.281881     -79517.728      3199182.8      126.25321      126.25539      200.6997     
     39900   998.06236      70.553362     -79553.006      3199182.8      126.25321      126.25539      200.6997     
     40000   994.80802      94.616083     -79569.941      3199182.8      126.25321      126.25539      200.6997     
     40100   1001.8747     -29.832029     -79564.396      3199182.8      126.25321      126.25539      200.6997     
     40200   1002.4414     -40.265112     -79587.527      3199182.8      126.25321      126.25539      200.6997     
     40300   994.28602     -4.5195515     -79633.4        3199182.8      126.25321      126.25539      200.6997     
     40400   999.05971     -44.643773     -79621.247      3199182.8      126.25321      126.25539      200.6997     
     40500   1002.417      -75.351785     -79603.676      3199182.8      126.25321      126.25539      200.6997     
     40600   1003.8049     -120.15811     -79609.149      3199182.8      126.25321      126.25539      200.6997     
     40700   1001.246      -112.8468      -79616.468      3199182.8      126.25321      126.25539      200.6997     
     40800   997.46947     -36.944576     -79606.451      3199182.8      126.25321      126.25539      200.6997     
     40900   1005.9904     -45.787044     -79567.381      3199182.8      126.25321      126.25539      200.6997     
     41000   1004.6132     -10.720288     -79567.949      3199182.8      126.25321      126.25539      200.6997     
     41100   999.44393     -100.62109     -79627.356      3199182.8      126.25321      126.25539      200.6997     
     41200   1002.4681     -224.5434      -79655.77       3199182.8      126.25321      126.25539      200.6997     
     41300   997.74046     -137.07533     -79668.532      3199182.8      126.25321      126.25539      200.6997     
     41400   997.90544     -69.049214     -79649.732      3199182.8      126.25321      126.25539      200.6997     
     41500   1001.8048     -5.508612      -79595.175      3199182.8      126.25321      126.25539      200.6997     
     41600   1004.2686      10.696692     -79569.683      3199182.8      126.25321      126.25539      200.6997     
     41700   1001.1185     -37.711836     -79621.171      3199182.8      126.25321      126.25539      200.6997     
     41800   998.21672     -7.1944919     -79671.185      3199182.8      126.25321      126.25539      200.6997     
     41900   1002.5016     -25.61948      -79694.15       3199182.8      126.25321      126.25539      200.6997     
     42000   999.36197      6.6992663     -79733.193      3199182.8      126.25321      126.25539      200.6997     
     42100   999.39659      25.259486     -79741.215      3199182.8      126.25321      126.25539      200.6997     
     42200   1003.4828      115.07558     -79710.302      3199182.8      126.25321      126.25539      200.6997     
     42300   1007.5411      261.12448     -79648.753      3199182.8      126.25321      126.25539      200.6997     
     42400   1005.594       256.44795     -79657.976      3199182.8      126.25321      126.25539      200.6997     
     42500   1002.1068      143.37513     -79701.076      3199182.8      126.25321      126.25539      200.6997     
     42600   1001.5426      65.776146     -79715.582      3199182.8      126.25321      126.25539      200.6997     
     42700   998.31404     -9.3683749     -79733.634      3199182.8      126.25321      126.25539      200.6997     
     42800   997.85004     -71.2976       -79749.937      3199182.8      126.25321      126.25539      200.6997     
     42900   999.47204     -31.920924     -79755.772      3199182.8      126.25321      126.25539      200.6997     
     43000   999.85571      67.415997     -79724.303      3199182.8      126.25321      126.25539      200.6997     
     43100   999.54542      213.7804      -79692.287      3199182.8      126.25321      126.25539      200.6997     
     43200   1007.1174      80.416218     -79694.515      3199182.8      126.25321      126.25539      200.6997     
     43300   999.09418      22.982838     -79762.597      3199182.8      126.25321      126.25539      200.6997     
     43400   999.41322     -41.722341     -79769.713      3199182.8      126.25321      126.25539      200.6997     
     43500   1001.2027     -74.312974     -79762.371      3199182.8      126.25321      126.25539      200.6997     
     43600   996.25865     -35.140853     -79777.311      3199182.8      126.25321      126.25539      200.6997     
     43700   999.3802      -77.437986     -79762.341      3199182.8      126.25321      126.25539      200.6997     
     43800   998.85792      110.67072     -79718.559      3199182.8      126.25321      126.25539      200.6997     
     43900   1001.0485      149.63886     -79687.808      3199182.8      126.25321      126.25539      200.6997     
     44000   1003.562      -28.828004     -79719.254      3199182.8      126.25321      126.25539      200.6997     
     44100   1004.5546     -223.65012     -79773.348      3199182.8      126.25321      126.25539      200.6997     
     44200   996.89865     -88.499988     -79790.869      3199182.8      126.25321      126.25539      200.6997     
     44300   1001.177      -56.71968      -79778.331      3199182.8      126.25321      126.25539      200.6997     
     44400   1003.2614      14.204373     -79756.493      3199182.8      126.25321      126.25539      200.6997     
     44500   1006.1837     -17.049894     -79756.36       3199182.8      126.25321      126.25539      200.6997     
     44600   1000.2992     -111.6751      -79829.866      3199182.8      126.25321      126.25539      200.6997     
     44700   998.79725     -130.05391     -79843.653      3199182.8      126.25321      126.25539      200.6997     
     44800   1003.7277     -116.89306     -79828.856      3199182.8      126.25321      126.25539      200.6997     
     44900   998.74653     -20.63172      -79824.52       3199182.8      126.25321      126.25539      200.6997     
     45000   1003.5432     -37.534706     -79787.916      3199182.8      126.25321      126.25539      200.6997     
     45100   1003.1539      7.0794576     -79765.883      3199182.8      126.25321      126.25539      200.6997     
     45200   999.57584     -67.788688     -79815.265      3199182.8      126.25321      126.25539      200.6997     
     45300   998.86505     -149.10662     -79859.088      3199182.8      126.25321      126.25539      200.6997     
     45400   996.53704     -43.42976      -79861.08       3199182.8      126.25321      126.25539      200.6997     
     45500   998.93617     -1.785699      -79839.824      3199182.8      126.25321      126.25539      200.6997     
     45600   1003.9085      19.185103     -79803.875      3199182.8      126.25321      126.25539      200.6997     
     45700   1005.9866      33.630521     -79779.498      3199182.8      126.25321      126.25539      200.6997     
     45800   1003.7807     -139.89973     -79831.957      3199182.8      126.25321      126.25539      200.6997     
     45900   996.74588     -181.9419      -79872.253      3199182.8      126.25321      126.25539      200.6997     
     46000   998.89973     -166.09985     -79881.03       3199182.8      126.25321      126.25539      200.6997     
     46100   998.85473     -130.28477     -79899.063      3199182.8      126.25321      126.25539      200.6997     
     46200   1001.2876     -199.8957      -79913.548      3199182.8      126.25321      126.25539      200.6997     
     46300   998.3064      -177.66413     -79939.213      3199182.8      126.25321      126.25539      200.6997     
     46400   995.15089     -132.70424     -79954.716      3199182.8      126.25321      126.25539      200.6997     
     46500   996.69014      40.966269     -79915.877      3199182.8      126.25321      126.25539      200.6997     
     46600   1009.219       32.631205     -79868.507      3199182.8      126.25321      126.25539      200.6997     
     46700   1001.0008      97.226351     -79905.788      3199182.8      126.25321      126.25539      200.6997     
     46800   996.70439      121.37477     -79926.502      3199182.8      126.25321      126.25539      200.6997     
     46900   1004.4118      47.50154      -79914.2        3199182.8      126.25321      126.25539      200.6997     
     47000   995.5211       145.65239     -79937.78       3199182.8      126.25321      126.25539      200.6997     
     47100   994.54576      32.632583     -79988.217      3199182.8      126.25321      126.25539      200.6997     
     47200   998.50716     -56.311864     -79970.815      3199182.8      126.25321      126.25539      200.6997     
     47300   1005.698      -45.944857     -79905.477      3199182.8      126.25321      126.25539      200.6997     
     47400   1000.8399      3.3612578     -79914.01       3199182.8      126.25321      126.25539      200.6997     
     47500   996.01829     -15.080979     -79942.259      3199182.8      126.25321      126.25539      200.6997     
     47600   1000.6774     -123.50955     -79960.835      3199182.8      126.25321      126.25539      200.6997     
     47700   994.40054     -152.61011     -80001.409      3199182.8      126.25321      126.25539      200.6997     
     47800   994.5391      -240.25181     -80020.445      3199182.8      126.25321      126.25539      200.6997     
     47900   998.4287      -99.082423     -79957.129      3199182.8      126.25321      126.25539      200.6997     
     48000   1001.3728     -118.41324     -79936.347      3199182.8      126.25321      126.25539      200.6997     
     48100   999.9965      -110.96587     -79952.447      3199182.8      126.25321      126.25539      200.6997     
     48200   998.38444     -90.122166     -79962.253      3199182.8      126.25321      126.25539      200.6997     
     48300   999.04808     -69.875296     -79964.015      3199182.8      126.25321      126.25539      200.6997     
     48400   999.82766     -117.20209     -79984.605      3199182.8      126.25321      126.25539      200.6997     
     48500   996.26575     -86.441976     -80004.969      3199182.8      126.25321      126.25539      200.6997     
     48600   998.05283     -128.52921     -80015.295      3199182.8      126.25321      126.25539      200.6997     
     48700   996.2336      -77.94815      -80021.177      3199182.8      126.25321      126.25539      200.6997     
     48800   1002.1549     -24.445111     -79980.361      3199182.8      126.25321      126.25539      200.6997     
     48900   1000.2682      88.506468     -79949.023      3199182.8      126.25321      126.25539      200.6997     
     49000   998.23827      92.519547     -79946.149      3199182.8      126.25321      126.25539      200.6997     
     49100   995.39844     -33.656944     -80003.094      3199182.8      126.25321      126.25539      200.6997     
     49200   1000.4315     -271.45801     -80042.993      3199182.8      126.25321      126.25539      200.6997     
     49300   999.24518     -249.19078     -80033.32       3199182.8      126.25321      126.25539      200.6997     
     49400   1002.0904     -200.65502     -79999.935      3199182.8      126.25321      126.25539      200.6997     
     49500   996.94246     -53.508221     -80003.211      3199182.8      126.25321      126.25539      200.6997     
     49600   999.73562     -31.196552     -79995.584      3199182.8      126.25321      126.25539      200.6997     
     49700   999.4841       4.7594312     -80007.27       3199182.8      126.25321      126.25539      200.6997     
     49800   1000.3186     -141.53149     -80067.457      3199182.8      126.25321      126.25539      200.6997     
     49900   997.80185     -172.43811     -80097.203      3199182.8      126.25321      126.25539      200.6997     
     50000   995.13459     -28.806278     -80077.51       3199182.8      126.25321      126.25539      200.6997     
     50100   1003.7429     -75.109898     -80027.407      3199182.8      126.25321      126.25539      200.6997     
     50200   997.97277     -33.004453     -80033.652      3199182.8      126.25321      126.25539      200.6997     
     50300   1002.4443     -90.709333     -80032.768      3199182.8      126.25321      126.25539      200.6997     
     50400   1000.0314     -74.604586     -80044.863      3199182.8      126.25321      126.25539      200.6997     
     50500   997.72165     -58.756691     -80068.745      3199182.8      126.25321      126.25539      200.6997     
     50600   997.63314     -2.2226726     -80083.164      3199182.8      126.25321      126.25539      200.6997     
     50700   1001.529      -8.6316246     -80084.846      3199182.8      126.25321      126.25539      200.6997     
     50800   998.052       -16.428412     -80116.718      3199182.8      126.25321      126.25539      200.6997     
     50900   996.92174     -5.776957      -80140.674      3199182.8      126.25321      126.25539      200.6997     
     51000   1002.3652      36.708837     -80122.322      3199182.8      126.25321      126.25539      200.6997     
     51100   1009.5138      93.009211     -80073.945      3199182.8      126.25321      126.25539      200.6997     
     51200   1007.0652      64.163634     -80083.965      3199182.8      126.25321      126.25539      200.6997     
     51300   1000.718      -38.936621     -80139.947      3199182.8      126.25321      126.25539      200.6997     
     51400   998.33574     -14.737237     -80142.4        3199182.8      126.25321      126.25539      200.6997     
     51500   1001.8098      12.257852     -80112.5        3199182.8      126.25321      126.25539      200.6997     
     51600   1003.378       66.494469     -80103.202      3199182.8      126.25321      126.25539      200.6997     
     51700   1002.9542     -3.6244328     -80138.237      3199182.8      126.25321      126.25539      200.6997     
     51800   993.55883      99.656554     -80171.846      3199182.8      126.25321      126.25539      200.6997     
     51900   999.18178      85.284846     -80154.486      3199182.8      126.25321      126.25539      200.6997     
     52000   1005.26        36.366654     -80155.012      3199182.8      126.25321      126.25539      200.6997     
     52100   994.82381      187.69785     -80198.954      3199182.8      126.25321      126.25539      200.6997     
     52200   1006.2611      46.827874     -80183.109      3199182.8      126.25321      126.25539      200.6997     
     52300   1001.3128      131.04546     -80178.891      3199182.8      126.25321      126.25539      200.6997     
     52400   1004.6557      112.75098     -80152.747      3199182.8      126.25321      126.25539      200.6997     
     52500   1006.6562      23.741313     -80145.022      3199182.8      126.25321      126.25539      200.6997     
     52600   999.81395     -89.150374     -80187.895      3199182.8      126.25321      126.25539      200.6997     
     52700   997.14763     -160.48898     -80215.228      3199182.8      126.25321      126.25539      200.6997     
     52800   998.74963     -150.75459     -80189.914      3199182.8      126.25321      126.25539      200.6997     
     52900   1001.796      -98.913074     -80140.813      3199182.8      126.25321      126.25539      200.6997     
     53000   1001.1342     -73.069181     -80137.476      3199182.8      126.25321      126.25539      200.6997     
     53100   1003.4491     -202.74182     -80141.259      3199182.8      126.25321      126.25539      200.6997     
     53200   999.32467     -173.36417     -80151.661      3199182.8      126.25321      126.25539      200.6997     
     53300   1001.1706     -142.22061     -80157.182      3199182.8      126.25321      126.25539      200.6997     
     53400   995.11406     -108.12598     -80209.925      3199182.8      126.25321      126.25539      200.6997     
     53500   996.49727     -132.12255     -80236.877      3199182.8      126.25321      126.25539      200.6997     
     53600   1001.1754     -138.38027     -80218.773      3199182.8      126.25321      126.25539      200.6997     
     53700   1003.9866     -36.446403     -80167.751      3199182.8      126.25321      126.25539      200.6997     
     53800   1002.4798      48.728079     -80129.308      3199182.8      126.25321      126.25539      200.6997     
     53900   1001.3765     -11.445745     -80158.47       3199182.8      126.25321      126.25539      200.6997     
     54000   999.02458     -49.52639      -80189.044      3199182.8      126.25321      126.25539      200.6997     
     54100   1001.5749     -61.734153     -80191.665      3199182.8      126.25321      126.25539      200.6997     
     54200   1000.6006     -97.203481     -80212.858      3199182.8      126.25321      126.25539      200.6997     
     54300   994.39653     -104.15446     -80271.019      3199182.8      126.25321      126.25539      200.6997     
     54400   996.91237     -96.534715     -80265.348      3199182.8      126.25321      126.25539      200.6997     
     54500   1000.4424      168.17363     -80183.185      3199182.8      126.25321      126.25539      200.6997     
     54600   999.78214      151.21318     -80196.189      3199182.8      126.25321      126.25539      200.6997     
     54700   999.48789     -2.2803553     -80237.977      3199182.8      126.25321      126.25539      200.6997     
     54800   994.76749     -29.360263     -80272.246      3199182.8      126.25321      126.25539      200.6997     
     54900   997.62162      1.1174623     -80262.547      3199182.8      126.25321      126.25539      200.6997     
     55000   1004.9024     -38.673024     -80237.209      3199182.8      126.25321      126.25539      200.6997     
     55100   1003.555      -71.908113     -80241.191      3199182.8      126.25321      126.25539      200.6997     
     55200   998.52779     -113.85815     -80281.707      3199182.8      126.25321      126.25539      200.6997     
     55300   997.62076     -91.700821     -80291.935      3199182.8      126.25321      126.25539      200.6997     
     55400   1003.318      -21.427943     -80243.254      3199182.8      126.25321      126.25539      200.6997     
     55500   1003.3815      36.130986     -80230.119      3199182.8      126.25321      126.25539      200.6997     
     55600   1000.2999      17.875711     -80247.44       3199182.8      126.25321      126.25539      200.6997     
     55700   997.53084     -5.0768445     -80269.503      3199182.8      126.25321      126.25539      200.6997     
     55800   999.69684     -23.310568     -80268.42       3199182.8      126.25321      126.25539      200.6997     
     55900   999.02995     -0.76535424    -80263.222      3199182.8      126.25321      126.25539      200.6997     
     56000   997.87513      23.418201     -80253.938      3199182.8      126.25321      126.25539      200.6997     
     56100   1005.1979     -63.458741     -80205.491      3199182.8      126.25321      126.25539      200.6997     
     56200   1004.3449     -111.45504     -80197.395      3199182.8      126.25321      126.25539      200.6997     
     56300   996.95071     -188.98559     -80248.626      3199182.8      126.25321      126.25539      200.6997     
     56400   998.32332     -311.46237     -80270.617      3199182.8      126.25321      126.25539      200.6997     
     56500   993.97639     -258.4907      -80279.735      3199182.8      126.25321      126.25539      200.6997     
     56600   999.54172     -225.52172     -80242.83       3199182.8      126.25321      126.25539      200.6997     
     56700   1001.547      -104.51545     -80212.694      3199182.8      126.25321      126.25539      200.6997     
     56800   1006.9146     -216.99184     -80210.498      3199182.8      126.25321      126.25539      200.6997     
     56900   998.21865     -271.41692     -80273.964      3199182.8      126.25321      126.25539      200.6997     
     57000   996.62887     -289.2368      -80274.016      3199182.8      126.25321      126.25539      200.6997     
     57100   1002.227      -234.62724     -80240.416      3199182.8      126.25321      126.25539      200.6997     
     57200   1002.8923     -123.08366     -80237.141      3199182.8      126.25321      126.25539      200.6997     
     57300   994.94992     -68.067159     -80296.085      3199182.8      126.25321      126.25539      200.6997     
     57400   999.7185      -157.09471     -80323.762      3199182.8      126.25321      126.25539      200.6997     
     57500   1001.7241     -36.730185     -80316.419      3199182.8      126.25321      126.25539      200.6997     
     57600   1003.175       3.856289      -80302.964      3199182.8      126.25321      126.25539      200.6997     
     57700   997.06874      43.530339     -80319.082      3199182.8      126.25321      126.25539      200.6997     
     57800   996.12474     -53.414715     -80362.509      3199182.8      126.25321      126.25539      200.6997     
     57900   996.2011      -110.39938     -80395.911      3199182.8      126.25321      126.25539      200.6997     
     58000   994.57871     -35.437007     -80382.997      3199182.8      126.25321      126.25539      200.6997     
     58100   1007.8557     -84.224612     -80318.728      3199182.8      126.25321      126.25539      200.6997     
     58200   996.97283      58.343828     -80334.56       3199182.8      126.25321      126.25539      200.6997     
     58300   1001.5556     -23.101189     -80339.817      3199182.8      126.25321      126.25539      200.6997     
     58400   999.71429     -110.60399     -80368.427      3199182.8      126.25321      126.25539      200.6997     
     58500   992.53357     -144.45496     -80419.183      3199182.8      126.25321      126.25539      200.6997     
     58600   1000.9777     -187.65035     -80390.88       3199182.8      126.25321      126.25539      200.6997     
     58700   998.23397      2.7649189     -80372.822      3199182.8      126.25321      126.25539      200.6997     
     58800   997.81367     -20.167968     -80381.209      3199182.8      126.25321      126.25539      200.6997     
     58900   1002.5356     -31.489375     -80379.018      3199182.8      126.25321      126.25539      200.6997     
     59000   1004.6233     -7.7389124     -80381.107      3199182.8      126.25321      126.25539      200.6997     
     59100   996.49888      41.864902     -80413.35       3199182.8      126.25321      126.25539      200.6997     
     59200   1000.8276     -145.13274     -80446.363      3199182.8      126.25321      126.25539      200.6997     
     59300   993.97655     -135.56608     -80498.685      3199182.8      126.25321      126.25539      200.6997     
     59400   999.47487     -44.94206      -80452.452      3199182.8      126.25321      126.25539      200.6997     
     59500   1000.7864      57.287049     -80418.372      3199182.8      126.25321      126.25539      200.6997     
     59600   1004.7464     -20.358265     -80402.629      3199182.8      126.25321      126.25539      200.6997     
     59700   996.87718      86.791031     -80404.57       3199182.8      126.25321      126.25539      200.6997     
     59800   1003.8014      44.4754       -80370.508      3199182.8      126.25321      126.25539      200.6997     
     59900   1004.6224      40.572618     -80353.973      3199182.8      126.25321      126.25539      200.6997     
     60000   1003.6432     -104.08905     -80391.415      3199182.8      126.25321      126.25539      200.6997     
     60100   993.06901     -153.34002     -80443.691      3199182.8      126.25321      126.25539      200.6997     
     60200   994.80387     -94.108009     -80418.026      3199182.8      126.25321      126.25539      200.6997     
     60300   999.60288     -38.64668      -80385.753      3199182.8      126.25321      126.25539      200.6997     
     60400   1002.5537      56.733523     -80366.253      3199182.8      126.25321      126.25539      200.6997     
     60500   1006.5228      59.123673     -80376.112      3199182.8      126.25321      126.25539      200.6997     
     60600   1003.03        48.686967     -80420.676      3199182.8      126.25321      126.25539      200.6997     
     60700   998.02045      118.96687     -80440.967      3199182.8      126.25321      126.25539      200.6997     
     60800   1005.7647      43.384864     -80437.671      3199182.8      126.25321      126.25539      200.6997     
     60900   997.15925      203.40436     -80452.491      3199182.8      126.25321      126.25539      200.6997     
     61000   1004.5149      86.927296     -80451.624      3199182.8      126.25321      126.25539      200.6997     
Loop time of 562.623 on 32 procs for 50000 steps with 55104 atoms

Performance: 7.678 ns/day, 3.126 hours/ns, 88.870 timesteps/s, 4.897 Matom-step/s
99.9% CPU use with 32 MPI tasks x 1 OpenMP threads

MPI task timing breakdown:
Section |  min time  |  avg time  |  max time  |%varavg| %total
---------------------------------------------------------------
Pair    | 3.9665     | 211.44     | 521.46     |1193.5 | 37.58
Bond    | 0.0021708  | 0.0049583  | 0.0077494  |   2.5 |  0.00
Neigh   | 0.069848   | 3.8317     | 9.8932     | 165.7 |  0.68
Comm    | 15.462     | 329.88     | 539.94     | 961.9 | 58.63
Output  | 1.4127     | 3.4141     | 5.4587     |  64.4 |  0.61
Modify  | 4.0533     | 9.7048     | 19.799     | 141.5 |  1.72
Other   |            | 4.342      |            |       |  0.77

Nlocal:           1722 ave        3989 max          52 min
Histogram: 8 4 2 6 0 0 4 0 4 4
Nghost:         4121.5 ave        7500 max        1102 min
Histogram: 4 4 0 4 8 0 8 0 0 4
Neighs:         287329 ave      713094 max        4288 min
Histogram: 8 4 6 2 0 1 2 3 2 4

Total # of neighbors = 9194524
Ave neighs/atom = 166.85765
Ave special neighs/atom = 0
Neighbor list builds = 438
Dangerous builds = 0

velocity ext create 1000.0 1203

unfix T
fix T ext npt temp 1000.0 1000.0 0.05 iso 1 1 0.5
thermo_style custom step temp press etotal vol lx ly lz
thermo 100
timestep 0.0005

run ${step_calc}
run 10000
Generated 0 of 0 mixed pair_coeff terms from geometric mixing rule
Per MPI rank memory allocation (min/avg/max) = 7.594 | 8.828 | 10.6 Mbytes
   Step          Temp          Press          TotEng         Volume           Lx             Ly             Lz      
     61000   1000           76.190636     -80483.782      3199182.8      126.25321      126.25539      200.6997     
     61100   996.48537      40.114436     -80480.769      3200609.2      126.27197      126.27415      200.72952    
     61200   998.34991     -103.90311     -80406.176      3203762.5      126.31342      126.31561      200.79542    
     61300   999.39963     -19.963718     -80377.67       3203637        126.31177      126.31396      200.7928     
     61400   1007.9922      44.776912     -80382.184      3201697.7      126.28628      126.28846      200.75228    
     61500   997.76171      20.477897     -80441.983      3201961.3      126.28975      126.29193      200.75778    
     61600   1000.127      -89.06321      -80464.858      3202108.6      126.29168      126.29387      200.76086    
     61700   993.93267      185.53197     -80470.523      3200576.4      126.27154      126.27372      200.72884    
     61800   1005.3958     -179.12537     -80412.124      3203494.3      126.3099       126.31208      200.78982    
     61900   1003.5212      27.11334      -80427.732      3201553.6      126.28438      126.28657      200.74926    
     62000   1001.8039      120.47954     -80458.466      3200181.5      126.26634      126.26852      200.72058    
     62100   999.60811     -172.21928     -80484.566      3202220.2      126.29315      126.29533      200.7632     
     62200   997.6028       78.534141     -80500.677      3199496.8      126.25734      126.25952      200.70626    
     62300   998.85648      146.89043     -80484.624      3198704        126.24691      126.24909      200.68969    
     62400   1005.8765     -199.44436     -80409.968      3202241.1      126.29342      126.29561      200.76363    
     62500   1001.7498      34.016107     -80418.828      3200569.5      126.27144      126.27363      200.72869    
     62600   1000.4715      116.39618     -80455.315      3199457.2      126.25681      126.259        200.70544    
     62700   996.26867     -133.10937     -80481.305      3202028.7      126.29063      126.29282      200.75919    
     62800   1000.8224      21.259985     -80462.73       3200705.9      126.27324      126.27542      200.73154    
     62900   1005.3746      206.25624     -80388.913      3200571.3      126.27147      126.27365      200.72873    
     63000   1001.241      -274.00833     -80387.895      3205917.7      126.34174      126.34392      200.84044    
     63100   1000.5947     -27.980814     -80402.908      3203627.7      126.31165      126.31383      200.79261    
     63200   1001.9058      256.57051     -80452.665      3199901.6      126.26266      126.26484      200.71473    
     63300   997.96583     -167.18475     -80489.857      3203594.6      126.31121      126.3134       200.79191    
     63400   998.92367     -61.37977      -80478.434      3203010.9      126.30354      126.30573      200.77972    
     63500   1007.3958      171.96753     -80460.119      3200331.5      126.26831      126.2705       200.72372    
     63600   996.23833     -81.247112     -80508.257      3203240        126.30655      126.30874      200.7845     
     63700   995.76922     -112.23281     -80521.278      3203174.1      126.30569      126.30787      200.78313    
     63800   1005.8359      126.48824     -80495.362      3199850.7      126.26199      126.26417      200.71366    
     63900   996.83188      57.167229     -80510.182      3201191.3      126.27962      126.2818       200.74169    
     64000   998.72963     -205.92603     -80497.967      3203240.5      126.30656      126.30874      200.78451    
     64100   1000.8565      138.83366     -80488.085      3199414.5      126.25625      126.25844      200.70454    
     64200   1004.0834      32.19459      -80508.773      3198752.6      126.24755      126.24973      200.6907     
     64300   992.16436     -44.67389      -80558.296      3199902.2      126.26267      126.26485      200.71474    
     64400   996.92542     -27.225711     -80523.655      3199636.6      126.25917      126.26136      200.70919    
     64500   1001.2091      93.437444     -80492.851      3198523.1      126.24453      126.24671      200.6859     
     64600   1003.1772     -49.506541     -80484.094      3199857.8      126.26208      126.26427      200.71381    
     64700   996.13394     -38.842234     -80497.295      3200521.8      126.27082      126.273        200.7277     
     64800   1002.5716      15.225924     -80477.304      3199588.9      126.25855      126.26073      200.70819    
     64900   1002.7863      87.148429     -80461.947      3199356.5      126.25549      126.25767      200.70333    
     65000   996.33882     -116.36402     -80489.475      3201235.7      126.28021      126.28239      200.74262    
     65100   997.68199     -6.6688815     -80498.721      3199582.6      126.25846      126.26065      200.70806    
     65200   1006.0858      117.08822     -80474.026      3197680.4      126.23344      126.23562      200.66828    
     65300   997.56745     -23.123258     -80494.813      3199608.7      126.25881      126.26099      200.7086     
     65400   995.19757     -123.58394     -80507.263      3200535        126.27099      126.27317      200.72797    
     65500   1009.0686      43.218085     -80464.696      3197552.6      126.23176      126.23394      200.6656     
     65600   1001.6701      101.56455     -80510.491      3196499        126.21789      126.22007      200.64356    
     65700   993.41165     -57.512183     -80536.411      3198361.4      126.2424       126.24458      200.68252    
     65800   998.30052     -9.252416      -80490.234      3198188.2      126.24012      126.2423       200.6789     
     65900   1006.1353     -11.38589      -80457.08       3197611.9      126.23254      126.23472      200.66684    
     66000   1000.1762      24.754901     -80496.214      3196963.3      126.224        126.22618      200.65327    
     66100   997.91171     -22.171287     -80524.32       3196884.9      126.22297      126.22515      200.65163    
     66200   1000.5489     -0.48040446    -80525.571      3195968.1      126.2109       126.21309      200.63245    
     66300   998.98032      54.458736     -80524.308      3195431.2      126.20384      126.20602      200.62122    
     66400   1000.1437      4.1700774     -80471.106      3196701.3      126.22055      126.22274      200.64779    
     66500   1003.3914     -61.744506     -80431.56       3197433.3      126.23019      126.23237      200.66311    
     66600   999.99626      39.127715     -80433.629      3196759.1      126.22131      126.2235       200.649      
     66700   999.84959     -49.103552     -80444.38       3196870.7      126.22278      126.22497      200.65134    
     66800   1001.256      -47.551316     -80489.369      3195186.2      126.20061      126.20279      200.61609    
     66900   998.91442      101.95256     -80537.059      3192609.6      126.16668      126.16886      200.56215    
     67000   1000.8024     -55.397311     -80552.439      3192851.3      126.16986      126.17204      200.56721    
     67100   995.76681      39.836434     -80570.694      3192134.4      126.16042      126.1626       200.5522     
     67200   1005.5352     -39.15467      -80536.938      3192030.7      126.15905      126.16123      200.55002    
     67300   999.57329      120.6879      -80513.19       3191831.3      126.15642      126.15861      200.54585    
     67400   1001.228      -140.11961     -80494.264      3194182.1      126.18739      126.18957      200.59507    
     67500   1001.9188      41.210456     -80451.545      3193350.5      126.17644      126.17862      200.57766    
     67600   1005.6762      41.855812     -80421.631      3193169.5      126.17405      126.17623      200.57387    
     67700   996.37257     -80.353381     -80472.018      3194216.1      126.18784      126.19002      200.59578    
     67800   1001.0452     -35.33207      -80505.656      3192115.9      126.16017      126.16236      200.55181    
     67900   1003.8862      149.41151     -80524.435      3189313.8      126.12325      126.12543      200.49311    
     68000   995.66034     -41.303304     -80552.677      3191301.6      126.14945      126.15163      200.53475    
     68100   997.44309     -129.08345     -80530.33       3192058.4      126.15942      126.1616       200.55061    
     68200   1002.1877      194.94035     -80514.538      3188605.9      126.11392      126.1161       200.47827    
     68300   1000.6597     -35.577568     -80519.885      3190527.9      126.13925      126.14143      200.51855    
     68400   1000.4189     -180.45236     -80530.265      3191712.6      126.15486      126.15704      200.54336    
     68500   1001.3072      191.89582     -80560.285      3187754.9      126.1027       126.10488      200.46044    
     68600   994.57939     -24.997378     -80632.288      3188870.9      126.11741      126.11959      200.48383    
     68700   998.46725     -139.72648     -80621.126      3189362        126.12388      126.12606      200.49412    
     68800   997.31827      258.24992     -80592.257      3186370        126.08443      126.08661      200.4314     
     68900   1001.0796     -130.48891     -80550.299      3189891        126.13086      126.13304      200.5052     
     69000   997.9423      -118.0808      -80532.451      3190414.5      126.13775      126.13994      200.51617    
     69100   1002.9077      187.60638     -80523.506      3186850.6      126.09077      126.09295      200.44148    
     69200   1001.6795     -66.351802     -80540.744      3188477.7      126.11222      126.11441      200.47559    
     69300   996.28922     -75.628803     -80561.366      3188654.7      126.11456      126.11674      200.4793     
     69400   998.96758      123.45939     -80541.2        3186621.1      126.08774      126.08992      200.43667    
     69500   1002.4792     -79.001528     -80535.743      3187781.1      126.10304      126.10522      200.46099    
     69600   997.11645      17.464094     -80555.377      3186902.5      126.09145      126.09363      200.44257    
     69700   1004.5017     -22.266788     -80561.459      3185361.3      126.07113      126.07331      200.41025    
     69800   996.6627       55.040425     -80626.086      3183860.5      126.05132      126.0535       200.37877    
     69900   995.78109      23.1873       -80644.203      3183683        126.04898      126.05116      200.37505    
     70000   998.22945      17.853357     -80619.107      3183957.4      126.0526       126.05478      200.3808     
     70100   999.78987     -4.9181136     -80584.286      3184984.3      126.06615      126.06833      200.40235    
     70200   999.36602     -56.799238     -80561.974      3186431.4      126.08524      126.08742      200.43269    
     70300   1002.4931      7.4456955     -80564.448      3185723.2      126.0759       126.07808      200.41784    
     70400   995.47742      127.63081     -80577.764      3185645.6      126.07488      126.07706      200.41621    
     70500   1000.0205     -183.61981     -80544.188      3188486.2      126.11234      126.11452      200.47577    
     70600   1008.8905      79.495733     -80476.943      3186313.2      126.08368      126.08586      200.43021    
     70700   1004.6835      72.731668     -80490.948      3186338.8      126.08402      126.0862       200.43075    
     70800   999.3233      -182.37059     -80515.174      3188566.7      126.1134       126.11558      200.47745    
     70900   1003.5452      33.180012     -80539.154      3185060.2      126.06715      126.06933      200.40394    
     71000   998.65976      222.27467     -80589.9        3182601.9      126.03471      126.03689      200.35236    
Loop time of 112.807 on 32 procs for 10000 steps with 55104 atoms

Performance: 3.830 ns/day, 6.267 hours/ns, 88.647 timesteps/s, 4.885 Matom-step/s
99.9% CPU use with 32 MPI tasks x 1 OpenMP threads

MPI task timing breakdown:
Section |  min time  |  avg time  |  max time  |%varavg| %total
---------------------------------------------------------------
Pair    | 0.69061    | 42.842     | 104.96     | 542.9 | 37.98
Bond    | 0.00043737 | 0.0010581  | 0.0019501  |   1.2 |  0.00
Neigh   | 0.0060124  | 0.39543    | 1.006      |  53.9 |  0.35
Comm    | 2.1347     | 65.055     | 108.19     | 440.0 | 57.67
Output  | 0.31128    | 0.70905    | 1.1163     |  28.2 |  0.63
Modify  | 1.7828     | 3.1659     | 5.5618     |  54.6 |  2.81
Other   |            | 0.6383     |            |       |  0.57

Nlocal:           1722 ave        3960 max          51 min
Histogram: 8 4 2 6 0 0 3 1 4 4
Nghost:        4127.38 ave        7496 max        1099 min
Histogram: 4 4 0 4 8 0 6 2 0 4
Neighs:         287217 ave      711986 max        4146 min
Histogram: 8 4 5 3 0 1 2 3 2 4

Total # of neighbors = 9190938
Ave neighs/atom = 166.79257
Ave special neighs/atom = 0
Neighbor list builds = 45
Dangerous builds = 0


velocity ext create 1000.0 1302

unfix T
fix T ext npt temp 1000.0 1000.0 0.05 iso 1 1 0.5
thermo_style custom step temp press etotal vol lx ly lz
thermo 100
timestep 0.001

run ${step_calc_2}
run 50000
Generated 0 of 0 mixed pair_coeff terms from geometric mixing rule
Per MPI rank memory allocation (min/avg/max) = 7.594 | 8.828 | 10.6 Mbytes
   Step          Temp          Press          TotEng         Volume           Lx             Ly             Lz      
     71000   1000           225.47844     -80580.354      3182601.9      126.03471      126.03689      200.35236    
     71100   997.44263     -160.96384     -80546.904      3187231.2      126.09579      126.09797      200.44946    
     71200   1004.448      -20.546185     -80546.52       3184268.8      126.05671      126.05889      200.38734    
     71300   1002.6042      62.596719     -80590.198      3182506.6      126.03345      126.03563      200.35037    
     71400   993.54353     -131.68609     -80630.106      3184149.7      126.05514      126.05732      200.38484    
     71500   1002.3469      149.02793     -80553.234      3181307.9      126.01763      126.01981      200.32521    
     71600   999.20264      73.76398      -80583.448      3181228.1      126.01657      126.01875      200.32353    
     71700   1001.0446     -204.96881     -80562.75       3183867        126.05141      126.05359      200.37891    
     71800   1001.9906      140.58539     -80583.533      3179965.3      125.9999       126.00207      200.29702    
     71900   1000.1624     -125.10071     -80582.696      3182406.1      126.03213      126.0343       200.34826    
     72000   998.93841      11.959845     -80595.051      3180621.8      126.00857      126.01075      200.31081    
     72100   1001.4465      130.65854     -80614.929      3178831.4      125.98492      125.9871       200.27321    
     72200   994.80759     -107.29056     -80666.346      3181093.4      126.01479      126.01697      200.32071    
     72300   996.6249       151.86817     -80641.744      3178830.5      125.98491      125.98709      200.27319    
     72400   1002.898      -128.37237     -80583.705      3181580        126.02122      126.0234       200.33092    
     72500   999.01737      30.958615     -80664.385      3178836.5      125.98499      125.98716      200.27332    
     72600   1000.0392      159.358       -80661.325      3177453.6      125.96671      125.96889      200.24427    
     72700   1003.335      -185.84604     -80580.114      3181782.1      126.02389      126.02607      200.33516    
     72800   997.80566      8.801864      -80623.004      3179433        125.99287      125.99504      200.28585    
     72900   1001.4134      117.11896     -80646.847      3176725.8      125.9571       125.95927      200.22898    
     73000   998.25799     -158.25223     -80652.888      3179782.8      125.99749      125.99967      200.29319    
     73100   1006.1395     -4.5278491     -80585.736      3178703.1      125.98322      125.9854       200.27052    
     73200   1000.754       39.255624     -80649.814      3177509.2      125.96745      125.96963      200.24544    
     73300   998.5152      -47.218661     -80702.598      3177412        125.96616      125.96834      200.2434     
     73400   999.8311       27.380911     -80659.277      3177365.5      125.96555      125.96773      200.24242    
     73500   1000.202       113.41603     -80675.872      3175814.2      125.94505      125.94722      200.20983    
     73600   1000.5871     -75.321505     -80702.117      3176673.1      125.9564       125.95858      200.22788    
     73700   1002.5149     -115.69939     -80636.744      3177871.4      125.97223      125.97441      200.25305    
     73800   1001.0561      86.083179     -80633.272      3175481.4      125.94065      125.94282      200.20284    
     73900   1002.7427     -170.19741     -80646.285      3176906        125.95948      125.96166      200.23277    
     74000   998.88112     -11.008941     -80691.911      3174425        125.92668      125.92886      200.18063    
     74100   1000.3288      221.81022     -80711.336      3170914.6      125.88024      125.88242      200.10682    
     74200   999.64864     -190.32816     -80668.543      3175382        125.93933      125.94151      200.20075    
     74300   1002.3643     -8.8504491     -80620.543      3174104.7      125.92244      125.92462      200.1739     
     74400   995.7257       256.5847      -80689.163      3170564.5      125.87561      125.87779      200.09945    
     74500   997.55094     -92.838477     -80683.236      3173090.8      125.90903      125.91121      200.15258    
     74600   1006.2505     -50.489747     -80608.169      3172792.6      125.90509      125.90727      200.14631    
     74700   994.8925       8.0011451     -80725.585      3171305.4      125.88541      125.88759      200.11504    
     74800   1004.7549     -174.10166     -80733.436      3170303.5      125.87216      125.87433      200.09396    
     74900   1002.372      -3.9810653     -80698.461      3168362.5      125.84646      125.84864      200.05312    
     75000   1002.2549     -23.026132     -80664.645      3168292.2      125.84553      125.84771      200.05164    
     75100   995.50458     -21.7214       -80747.583      3166665.6      125.82399      125.82617      200.0174     
     75200   1001.479      -25.450509     -80711.669      3166707.6      125.82455      125.82672      200.01828    
     75300   996.44233     -12.246318     -80702.225      3167903.3      125.84038      125.84256      200.04345    
     75400   1003.6422      51.381304     -80635.734      3167524.9      125.83537      125.83755      200.03549    
     75500   997.66923      63.117611     -80694.313      3166392        125.82037      125.82255      200.01164    
     75600   1001.8455      12.586722     -80711.571      3165628.4      125.81025      125.81243      199.99556    
     75700   999.82889     -94.405326     -80746.214      3165989.5      125.81504      125.81721      200.00316    
     75800   1001.1209     -23.756619     -80736.641      3165110.2      125.80339      125.80556      199.98464    
     75900   1001.6794      9.6873934     -80717.423      3165203.8      125.80463      125.8068       199.98661    
     76000   1004.538      -184.0842      -80663.196      3167737.3      125.83819      125.84036      200.03996    
     76100   1006.4703     -123.77588     -80678.56       3166300.5      125.81916      125.82133      200.00971    
     76200   995.93699      72.082564     -80716.347      3164980.1      125.80166      125.80384      199.9819     
     76300   1004.1728      71.752655     -80700.685      3164200.4      125.79133      125.79351      199.96548    
     76400   1000.3798     -238.01344     -80677.24       3167978        125.84137      125.84355      200.04502    
     76500   1008.331       59.328673     -80647.315      3165215.9      125.80479      125.80696      199.98687    
     76600   999.84093     -12.972119     -80705.093      3166378.9      125.82019      125.82237      200.01136    
     76700   996.48072     -38.545401     -80721.896      3167086.5      125.82957      125.83174      200.02626    
     76800   1011.0755      84.961499     -80693.567      3164061.3      125.78949      125.79167      199.96255    
     76900   997.46171     -299.87161     -80753.604      3168053.1      125.84237      125.84454      200.04661    
     77000   1003.0919      23.872694     -80691.908      3165573.9      125.80953      125.81171      199.99441    
     77100   1003.1564      131.12951     -80741.192      3162746.7      125.77207      125.77424      199.93485    
     77200   999.60465     -173.86811     -80782.263      3164008.6      125.78879      125.79097      199.96144    
     77300   1003.2107     -56.635081     -80715.937      3163826.6      125.78638      125.78855      199.9576     
     77400   1003.2406      13.463565     -80698.225      3163648.1      125.78401      125.78619      199.95384    
     77500   997.32237     -11.579626     -80787.975      3162536.6      125.76928      125.77146      199.93043    
     77600   998.19745      73.205076     -80791.043      3160912.5      125.74775      125.74992      199.8962     
     77700   999.11966      26.212547     -80717.222      3162095.3      125.76343      125.76561      199.92112    
     77800   1003.9751     -65.105649     -80695.483      3162353.2      125.76685      125.76903      199.92656    
     77900   1001.9266     -155.63283     -80730.427      3161982        125.76193      125.7641       199.91874    
     78000   1003.2697      232.6622      -80764.629      3156686.9      125.69169      125.69386      199.80708    
     78100   995.22459     -59.346329     -80783.679      3159578        125.73005      125.73222      199.86806    
     78200   1001.8198     -189.0749      -80730.987      3160044.4      125.73624      125.73841      199.87789    
     78300   1004.059       200.32745     -80759.924      3154889.5      125.66783      125.67         199.76915    
     78400   994.24249      53.153153     -80854.423      3154501        125.66267      125.66484      199.76095    
     78500   998.9943      -81.833939     -80762.001      3156559.7      125.69         125.69217      199.80439    
     78600   1003.4096      114.16293     -80720.577      3154801.4      125.66666      125.66883      199.76729    
     78700   997.78157     -38.851523     -80783.483      3154983.2      125.66907      125.67125      199.77113    
     78800   1003.2501     -56.215995     -80786.207      3153339.2      125.64724      125.64941      199.73642    
     78900   995.36145     -102.62214     -80762.422      3154462.9      125.66216      125.66434      199.76014    
     79000   1003.1133      218.86046     -80762.356      3149151        125.59159      125.59376      199.64795    
     79100   999.08269     -147.23931     -80792.139      3151472        125.62244      125.62461      199.69699    
     79200   997.99023     -92.732427     -80801.572      3150616.8      125.61107      125.61324      199.67892    
     79300   1004.4037      179.40292     -80772.942      3148513.1      125.58311      125.58528      199.63447    
     79400   997.79767     -168.68594     -80801.001      3152370.7      125.63438      125.63655      199.71597    
     79500   996.64136      28.271715     -80838.14       3149911.7      125.6017       125.60387      199.66403    
     79600   997.66729      269.48065     -80875.518      3146159.9      125.55181      125.55398      199.58472    
     79700   1000.7204     -253.34409     -80792.251      3151350.9      125.62083      125.623        199.69443    
     79800   997.02199      73.812084     -80835.078      3147747.7      125.57293      125.5751       199.61829    
     79900   1007.7703      41.665608     -80750.103      3147938        125.57546      125.57763      199.62232    
     80000   1000.193      -197.96754     -80831.97       3148210.5      125.57909      125.58126      199.62808    
     80100   1010.2174     -146.61263     -80825.153      3145743        125.54627      125.54844      199.57591    
     80200   999.92685      13.761556     -80897.126      3143328.4      125.51414      125.51631      199.52483    
     80300   1000.0033     -18.644099     -80857.623      3144113.6      125.52459      125.52676      199.54144    
     80400   1001.396      -81.531895     -80793.502      3146065.2      125.55055      125.55273      199.58272    
     80500   999.1064       96.030595     -80832.352      3144001.9      125.5231       125.52527      199.53908    
     80600   998.3788       33.383928     -80871.813      3143044.2      125.51036      125.51253      199.51882    
     80700   999.00729     -66.306737     -80842.704      3143803        125.52046      125.52263      199.53487    
     80800   999.82763      61.476287     -80812.078      3142723.1      125.50608      125.50825      199.51202    
     80900   994.30275      202.17483     -80907.272      3139391.5      125.46171      125.46388      199.4415     
     81000   1003.1732     -244.81854     -80841.039      3142844        125.50769      125.50986      199.51458    
     81100   996.05024     -51.100332     -80888.502      3140996.8      125.4831       125.48527      199.47549    
     81200   997.25586      307.07075     -80914.104      3136607.8      125.42462      125.42679      199.38253    
     81300   999.34211     -145.18144     -80845.096      3140856.7      125.48123      125.4834       199.47252    
     81400   1001.3318     -83.3653       -80804.854      3140526.6      125.47683      125.479        199.46553    
     81500   1000.0111      166.89252     -80896.751      3135547.9      125.41049      125.41266      199.36007    
     81600   997.10328     -95.589259     -80867.672      3138651.8      125.45186      125.45403      199.42583    
     81700   1000.9286      93.007771     -80852.512      3136854        125.4279       125.43007      199.38775    
     81800   1003.657      -55.968116     -80877.085      3137208.7      125.43263      125.4348       199.39526    
     81900   995.9742      -121.96823     -80948.108      3137165.2      125.43205      125.43422      199.39434    
     82000   1002.8082     -27.739245     -80877.424      3136779.4      125.42691      125.42908      199.38617    
     82100   999.43174     -20.786346     -80876.561      3136823.1      125.42749      125.42966      199.38709    
     82200   1008.153      -20.591804     -80815.544      3136689.2      125.42571      125.42788      199.38426    
     82300   1000.0224      36.769803     -80908.389      3135105.5      125.40459      125.40676      199.35069    
     82400   994.00809      13.858146     -80913.323      3135588.6      125.41103      125.4132       199.36093    
     82500   1003.8422      105.60636     -80868.266      3133254.2      125.37991      125.38207      199.31145    
     82600   992.70061     -9.4814748     -80914.209      3134591.6      125.39774      125.39991      199.3398     
     82700   1003.9222      91.862223     -80880.53       3132602.5      125.37121      125.37338      199.29763    
     82800   994.62026      18.738238     -80928.798      3133447.6      125.38249      125.38465      199.31555    
     82900   1004.528      -33.257584     -80872.296      3132704.8      125.37258      125.37475      199.2998     
     83000   996.88648     -29.574235     -80903.84       3132101.8      125.36453      125.3667       199.28701    
     83100   1001.3612      81.51641      -80873.144      3130971.5      125.34945      125.35162      199.26303    
     83200   996.95994      3.6216897     -80911.025      3131687.7      125.35901      125.36117      199.27823    
     83300   1006.3129      34.440747     -80866.252      3131087.7      125.351        125.35317      199.2655     
     83400   993.24877     -8.7859347     -80922.03       3132036.3      125.36366      125.36583      199.28562    
     83500   998.57557      160.9439      -80888.78       3130524.9      125.34349      125.34566      199.25356    
     83600   1001.5234      16.666661     -80862.356      3131651.9      125.35853      125.3607       199.27747    
     83700   996.20833     -28.981581     -80910.011      3131615.7      125.35805      125.36021      199.2767     
     83800   1003.6772      118.6163      -80921.116      3128384.4      125.31492      125.31708      199.20814    
     83900   997.25962     -173.10907     -80968.899      3129905.4      125.33522      125.33739      199.24041    
     84000   1000.5724     -95.814831     -80892.393      3129538        125.33032      125.33248      199.23262    
     84100   1006.4078      88.357727     -80847.361      3127595        125.30437      125.30654      199.19138    
     84200   999.78306     -152.679       -80910.457      3129443.5      125.32905      125.33122      199.23061    
     84300   1003.3525     -12.102251     -80902.536      3128118.9      125.31137      125.31354      199.2025     
     84400   998.77851     -19.679981     -80952.018      3126987.8      125.29626      125.29843      199.17849    
     84500   1003.3835     -129.91591     -80911.457      3127082.2      125.29753      125.29969      199.18049    
     84600   1005.8359      33.140528     -80890.803      3124906.7      125.26846      125.27063      199.13429    
     84700   996.42552     -50.314149     -80940.458      3124966.6      125.26926      125.27143      199.13556    
     84800   997.05458      139.68856     -80918.747      3122661.8      125.23846      125.24062      199.08659    
     84900   995.97052      175.04815     -80932.781      3121250.2      125.21958      125.22175      199.05659    
     85000   994.63473     -100.98216     -80953.574      3122912.7      125.24181      125.24398      199.09193    
     85100   1004.1166      118.55886     -80899.357      3120457.6      125.20898      125.21115      199.03974    
     85200   1000.4211      43.009699     -80964.603      3119338.6      125.19402      125.19618      199.01595    
     85300   998.90458     -251.84951     -80958.469      3121819.4      125.2272       125.22936      199.06869    
     85400   998.7009       275.79948     -80974.733      3116962.9      125.16222      125.16439      198.96541    
     85500   998.20165      119.02434     -80988.295      3118123.5      125.17776      125.17992      198.9901     
     85600   998.38384     -255.26634     -80948.413      3121952.3      125.22897      125.23114      199.07152    
     85700   1005.9834      174.46927     -80915.935      3117746.8      125.17272      125.17488      198.98209    
     85800   999.67862     -80.400133     -80954.558      3119996.9      125.20282      125.20499      199.02994    
     85900   994.60028     -101.18713     -81007.172      3119221.6      125.19245      125.19461      199.01346    
     86000   1004.751       176.11994     -80952.745      3115999.3      125.14933      125.15149      198.9449     
     86100   998.34102     -173.58483     -80976.665      3118537.3      125.18329      125.18546      198.9989     
     86200   995.36593      36.926059     -81019.652      3115630.9      125.14439      125.14656      198.93706    
     86300   999.60208      218.82131     -80984.633      3113464.4      125.11538      125.11754      198.89094    
     86400   996.4752      -109.81494     -80989.96       3115679.1      125.14504      125.1472       198.93809    
     86500   1000.0137      54.613603     -81001.64       3112952        125.10852      125.11068      198.88003    
     86600   997.82195      160.82877     -81053.884      3110924.7      125.08135      125.08351      198.83685    
     86700   1000.1638     -132.00562     -80964.444      3114730        125.13233      125.13449      198.91789    
     86800   997.35316      151.36606     -80934.996      3112552.5      125.10316      125.10533      198.87152    
     86900   995.34963      97.819338     -80986.386      3111466.8      125.08862      125.09078      198.8484     
     87000   1001.0941     -82.136541     -80999.745      3110666.6      125.07789      125.08005      198.83135    
     87100   997.41323     -37.734933     -81010.559      3109491.5      125.06214      125.0643       198.80631    
     87200   1001.2937      159.13502     -80986.45       3107073.5      125.02971      125.03188      198.75476    
     87300   998.72588     -77.253121     -80952.792      3110194.5      125.07156      125.07373      198.82129    
     87400   1001.9705     -61.420412     -80931.006      3109714.1      125.06512      125.06729      198.81105    
     87500   1001.6368      177.22201     -80987.111      3105865.1      125.0135       125.01566      198.72899    
     87600   996.8527      -145.79395     -81018.201      3108101        125.0435       125.04566      198.77667    
     87700   1004.6567     -16.576893     -80944.254      3106956.8      125.02815      125.03031      198.75227    
     87800   1004.0331      84.106277     -80956.556      3105105.7      125.00331      125.00547      198.71279    
     87900   994.88713     -184.98765     -81004.684      3107151.7      125.03076      125.03293      198.75643    
     88000   1001.1853      218.04298     -80976.484      3103243        124.97831      124.98047      198.67305    
     88100   996.65512     -0.49477701    -81023.544      3104542.9      124.99576      124.99792      198.70079    
     88200   1001.8292     -213.67789     -81018.541      3105762.8      125.01213      125.01429      198.72681    
     88300   998.9234       186.3711      -81034.725      3102502        124.96836      124.97052      198.65724    
     88400   1003.7791     -39.754071     -80964.669      3105608.6      125.01006      125.01222      198.72352    
     88500   1001.4164     -270.24498     -80984.81       3107527.1      125.0358       125.03796      198.76443    
     88600   1000.2206      273.51626     -81063.459      3101273.5      124.95187      124.95403      198.63101    
     88700   1001.5596      1.9430921     -81013.774      3104625.2      124.99687      124.99903      198.70254    
     88800   994.92186     -132.65835     -81040.988      3105760.4      125.0121       125.01426      198.72676    
     88900   1002.8768      355.43473     -81043.529      3099744.2      124.93133      124.93349      198.59836    
     89000   994.72666     -95.463803     -81097.627      3103406.9      124.98051      124.98267      198.67655    
     89100   995.60398     -54.222622     -81043.404      3104632.8      124.99697      124.99913      198.70271    
     89200   1004.5961      117.95701     -80981.238      3103645.8      124.98372      124.98588      198.68165    
     89300   1005.6315     -208.0623      -81019.891      3105452.7      125.00797      125.01013      198.7202     
     89400   1000.2882     -60.67879      -81076.89       3104230.9      124.99157      124.99373      198.69413    
     89500   1002.3749      14.361168     -81008.809      3104732.1      124.9983       125.00046      198.70482    
     89600   998.02662      63.460503     -81065.126      3104046.7      124.9891       124.99126      198.6902     
     89700   996.44622      120.66782     -81100.949      3103492.7      124.98166      124.98383      198.67838    
     89800   989.91609      54.437737     -81148.161      3103975.5      124.98815      124.99031      198.68868    
     89900   1000.7095      13.877871     -81062.261      3104624.3      124.99685      124.99901      198.70252    
     90000   999.43005     -35.609206     -81082.325      3104294.8      124.99243      124.99459      198.6955     
     90100   1007.8374     -36.877921     -81057.341      3103078.6      124.97611      124.97827      198.66954    
     90200   1001.7795     -237.27682     -81072.292      3105409.3      125.00739      125.00955      198.71927    
     90300   997.02395      68.079136     -81088.021      3103165.6      124.97727      124.97943      198.6714     
     90400   994.13409      319.34169     -81127.2        3100298.2      124.93877      124.94093      198.61019    
     90500   1000.3294     -163.34236     -81065.914      3104417.1      124.99407      124.99623      198.6981     
     90600   994.94479      2.2539627     -81130.288      3102370.1      124.96659      124.96875      198.65442    
     90700   1000.5691      257.07551     -81115.788      3099568.3      124.92896      124.93112      198.5946     
     90800   992.67298     -206.72685     -81189.707      3102646.5      124.9703       124.97246      198.66032    
     90900   1005.5261      7.0149617     -81128.884      3099876.4      124.9331       124.93526      198.60118    
     91000   996.07211      40.951075     -81137.451      3100410.1      124.94027      124.94243      198.61258    
     91100   996.40907      29.776389     -81093.226      3101157.7      124.95031      124.95247      198.62854    
     91200   1002.5146      95.200443     -81041.974      3100199.5      124.93744      124.9396       198.60808    
     91300   1002.048      -111.96128     -81034.956      3101784.5      124.95873      124.96089      198.64192    
     91400   1000.8312      102.77327     -81126.461      3097740.8      124.9044       124.90656      198.55556    
     91500   1003.9361     -22.799023     -81132.395      3097345.2      124.89909      124.90125      198.54711    
     91600   992.25912     -149.71178     -81199.53       3097489.3      124.90102      124.90318      198.55019    
     91700   998.57385      210.01804     -81132.711      3094258.2      124.85758      124.85974      198.48113    
     91800   1001.9596     -28.388061     -81069.015      3096754.5      124.89115      124.89331      198.53449    
     91900   999.44349     -120.40813     -81108.712      3096374.5      124.88604      124.8882       198.52637    
     92000   1001.1632      158.74661     -81120.874      3093019.7      124.84092      124.84308      198.45464    
     92100   996.58167     -69.796831     -81149.377      3094487        124.86066      124.86282      198.48602    
     92200   1003.1154     -93.755807     -81075.927      3094368.8      124.85907      124.86123      198.48349    
     92300   995.88796      226.25126     -81168.635      3089806.6      124.79767      124.79983      198.3859     
     92400   996.91038     -59.382442     -81172.466      3091533.2      124.82092      124.82307      198.42284    
     92500   1006.8053     -62.520277     -81092.503      3091673.8      124.82281      124.82497      198.42585    
     92600   995.78063      76.710917     -81130.816      3091363.6      124.81863      124.82079      198.41922    
     92700   1000.9327      50.65597      -81049.534      3092679.4      124.83634      124.8385       198.44737    
     92800   1005.2248      41.096082     -81078.852      3091411.4      124.81928      124.82144      198.42024    
     92900   1000.2647     -174.32761     -81146.352      3091549.7      124.82114      124.8233       198.4232     
     93000   995.53085      111.3244      -81210.88       3087886.1      124.77181      124.77397      198.34479    
     93100   996.13297      55.543729     -81120.485      3090093.6      124.80154      124.8037       198.39204    
     93200   997.73381      7.3949034     -81120.423      3090019        124.80053      124.80269      198.39045    
     93300   997.53478      126.19099     -81160.06       3087624.9      124.7683       124.77045      198.3392     
     93400   1006.2976     -77.73056      -81092.243      3089462.5      124.79304      124.7952       198.37853    
     93500   995.23672      36.348589     -81168.622      3088063.8      124.77421      124.77636      198.34859    
     93600   1001.1042      173.41245     -81122.563      3086556.3      124.7539       124.75606      198.31631    
     93700   995.64055     -204.43783     -81179.464      3088928.7      124.78585      124.78801      198.36711    
     93800   1002.5355      57.823748     -81204.756      3084845        124.73084      124.733        198.27965    
     93900   1004.756       75.873545     -81183.742      3084870.4      124.73118      124.73334      198.2802     
     94000   996.14765     -385.7529      -81167.097      3090451.1      124.80635      124.80851      198.39969    
     94100   1005.2141      203.97741     -81090.203      3086345.4      124.75106      124.75321      198.31179    
     94200   994.25861      214.41068     -81160.391      3086271.1      124.75006      124.75221      198.3102     
     94300   993.17392     -45.624829     -81187.301      3088414.7      124.77893      124.78109      198.3561     
     94400   1002.7364      41.412837     -81156.033      3087429        124.76566      124.76781      198.335      
     94500   1005.9893     -234.06397     -81186.42       3088833.6      124.78457      124.78673      198.36507    
     94600   1001.7237     -21.786348     -81262.163      3085965.2      124.74593      124.74809      198.30365    
     94700   999.28787     -37.820729     -81190.641      3088704        124.78283      124.78499      198.3623     
     94800   1003.339      -54.313365     -81134.71       3090333.5      124.80477      124.80693      198.39718    
     94900   996.70958     -4.8254069     -81186.966      3090214.8      124.80317      124.80533      198.39463    
     95000   998.1356       107.63938     -81216.555      3088279.7      124.77711      124.77927      198.35321    
     95100   1002.6522     -7.0887779     -81281.879      3087176.2      124.76225      124.76441      198.32959    
     95200   1002.3931     -213.45193     -81211.369      3090874.1      124.81205      124.8142       198.40874    
     95300   1001.6334      49.107223     -81180.326      3089723.2      124.79655      124.79871      198.38411    
     95400   1000.3892     -59.421282     -81171.832      3090530.2      124.80742      124.80957      198.40138    
     95500   1001.9174     -26.358315     -81158.782      3089625        124.79523      124.79739      198.38201    
     95600   996.04789      135.55095     -81201.363      3088102.1      124.77472      124.77688      198.34941    
     95700   1002.8666     -47.011268     -81130.781      3090235.8      124.80345      124.80561      198.39509    
     95800   1000.9429     -0.25986441    -81186.964      3088331.1      124.77781      124.77996      198.35432    
     95900   1004.6676     -67.00894      -81220.438      3087177.8      124.76227      124.76443      198.32962    
     96000   997.27945     -95.843073     -81282.98       3086621.6      124.75478      124.75694      198.31771    
     96100   999.52871      88.35925      -81254.797      3084634.6      124.728        124.73016      198.27514    
     96200   999.29964      65.836768     -81202.544      3085561.1      124.74049      124.74265      198.29499    
     96300   997.38804     -4.0563819     -81164.19       3086817.4      124.75742      124.75957      198.3219     
     96400   1001.165       30.859599     -81168.787      3085878.6      124.74477      124.74693      198.3018     
     96500   997.93295      22.117114     -81261.939      3083955        124.71884      124.721        198.26058    
     96600   997.32267     -70.347109     -81227.119      3085533.6      124.74012      124.74228      198.29441    
     96700   1002.202       104.06301     -81177.652      3084154.7      124.72153      124.72369      198.26486    
     96800   995.92664     -8.7453056     -81250.579      3083506.7      124.7128       124.71496      198.25098    
     96900   999.0958      -19.296826     -81214.515      3083066.8      124.70687      124.70903      198.24155    
     97000   1000.6616      43.639393     -81191.104      3082713.1      124.7021       124.70426      198.23397    
     97100   996.20828      12.116021     -81274.44       3081358.3      124.68383      124.68598      198.20492    
     97200   1001.6744     -54.03702      -81225.227      3081489.8      124.6856       124.68776      198.20774    
     97300   998.26069      92.368559     -81239.937      3079521.4      124.65905      124.6612       198.16553    
     97400   994.59671     -12.990843     -81267.693      3080052.8      124.66622      124.66837      198.17693    
     97500   1002.8658     -13.865254     -81228.744      3079514.4      124.65895      124.66111      198.16538    
     97600   1002.3602     -129.31663     -81226.999      3080425.4      124.67124      124.6734       198.18492    
     97700   1000.2344     -23.509091     -81202.699      3080413.3      124.67108      124.67324      198.18466    
     97800   1001.2477      157.05241     -81234.831      3078277.5      124.64226      124.64442      198.13884    
     97900   996.6027      -135.52053     -81279.796      3080695.7      124.67489      124.67705      198.19071    
     98000   999.37877     -13.013114     -81216.023      3081800.9      124.6898       124.69195      198.21441    
     98100   1001.4402      248.98242     -81142.889      3081570.7      124.68669      124.68885      198.20947    
     98200   999.01613     -197.40368     -81195.502      3084107.1      124.72089      124.72305      198.26384    
     98300   999.04601      58.648313     -81252.683      3079364.1      124.65692      124.65908      198.16215    
     98400   996.74885      293.98014     -81273.761      3076386        124.61673      124.61888      198.09825    
     98500   1002.3303     -163.44306     -81177.379      3081379.3      124.68411      124.68627      198.20537    
     98600   999.27961      62.994436     -81221.328      3079019.1      124.65227      124.65443      198.15475    
     98700   1006.9318     -16.111706     -81223.832      3078340.9      124.64312      124.64527      198.1402     
     98800   993.76303     -178.73564     -81290.776      3079668.9      124.66104      124.66319      198.16869    
     98900   1001.7936     -23.700867     -81207.371      3078983.2      124.65178      124.65394      198.15398    
     99000   1001.75        19.884555     -81198.788      3078940.6      124.65121      124.65336      198.15307    
     99100   995.81534      28.285586     -81272.668      3078288.9      124.64241      124.64457      198.13909    
     99200   995.7212       92.373227     -81299.276      3077390.4      124.63029      124.63244      198.11981    
     99300   999.5348       93.343606     -81214.385      3078769.3      124.6489       124.65105      198.14939    
     99400   993.37821      96.563756     -81269.676      3077896.1      124.63711      124.63927      198.13066    
     99500   1004.0021      21.002383     -81217.866      3078104.5      124.63993      124.64208      198.13513    
     99600   1004.8181     -223.2164      -81236.594      3080297.7      124.66952      124.67168      198.18218    
     99700   996.30359      17.097089     -81316.759      3078787.8      124.64915      124.6513       198.14979    
     99800   1002.5198      148.49913     -81246.337      3079225.3      124.65505      124.65721      198.15918    
     99900   999.51611     -190.33414     -81264.97       3082461.8      124.69871      124.70087      198.22858    
    100000   994.39421      9.3564812     -81359.942      3079974.6      124.66516      124.66732      198.17525    
    100100   1001.5508      169.0674      -81310.778      3079171        124.65432      124.65647      198.15801    
    100200   1001.8205     -169.11667     -81282.608      3082665.7      124.70146      124.70362      198.23295    
    100300   997.60291     -47.461321     -81225.695      3083421.4      124.71165      124.71381      198.24915    
    100400   999.74107      336.5841      -81262.319      3078911.2      124.65081      124.65297      198.15244    
    100500   997.25183     -163.18556     -81303.412      3082608.3      124.70069      124.70284      198.23172    
    100600   1003.2228     -39.956892     -81270.313      3081644.6      124.68769      124.68985      198.21106    
    100700   998.46715      112.04443     -81322.203      3079981.3      124.66525      124.66741      198.17539    
    100800   998.09968     -40.767763     -81307.645      3081771.5      124.6894       124.69156      198.21378    
    100900   997.9844       123.83266     -81332.842      3080254.5      124.66894      124.67109      198.18125    
    101000   1001.8098     -113.56516     -81264.078      3084416.3      124.72506      124.72722      198.27047    
    101100   999.40575     -25.997972     -81345.993      3082735.2      124.7024       124.70455      198.23444    
    101200   1001.1128      17.212259     -81355.462      3082272.6      124.69616      124.69832      198.22452    
    101300   1003.9869     -27.668313     -81300.33       3083324.2      124.71034      124.71249      198.24706    
    101400   997.22753     -84.301506     -81301.967      3085091.7      124.73416      124.73632      198.28494    
    101500   997.9832       205.78336     -81343.135      3081709.1      124.68856      124.69072      198.21244    
    101600   999.1494      -35.986419     -81364.505      3083154.2      124.70805      124.7102       198.24342    
    101700   998.27029     -48.917075     -81386.258      3083044.6      124.70657      124.70873      198.24107    
    101800   1003.1363      20.315267     -81307.584      3083861        124.71758      124.71973      198.25857    
    101900   1001.2715     -170.85269     -81238.501      3087657.8      124.76874      124.77089      198.3399     
    102000   1005.554      -8.9150497     -81258.418      3085390.4      124.73819      124.74035      198.29134    
    102100   1001.0084      19.640388     -81328.791      3083670.6      124.71501      124.71717      198.25449    
    102200   999.52558     -62.511329     -81326.618      3084034        124.71991      124.72206      198.26228    
    102300   1003.1569     -45.060332     -81268.284      3084372.2      124.72447      124.72662      198.26952    
    102400   1003.1018      128.72289     -81353.57       3080655.9      124.67435      124.67651      198.18986    
    102500   999.49488     -233.03933     -81344.042      3084583.6      124.72732      124.72947      198.27405    
    102600   1000.7704      33.452257     -81304.053      3083292.4      124.70991      124.71207      198.24638    
    102700   998.52652      296.49553     -81320.472      3081060.4      124.67981      124.68197      198.19853    
    102800   991.49604     -144.52648     -81372.091      3084691.2      124.72877      124.73092      198.27636    
    102900   1007.3463      14.676571     -81308.774      3082664        124.70144      124.70359      198.23291    
    103000   1004.8384     -29.165318     -81308.886      3083342.4      124.71058      124.71274      198.24745    
    103100   997.06151     -200.35393     -81385.155      3084047.6      124.72009      124.72225      198.26257    
    103200   1000.2633      139.30023     -81353.601      3081736.8      124.68893      124.69109      198.21304    
    103300   999.54658      25.800168     -81284.827      3084814.5      124.73043      124.73258      198.279      
    103400   1000.2735      54.849705     -81299.483      3083923.7      124.71842      124.72058      198.25991    
    103500   993.76946      152.591       -81366.028      3082233.4      124.69563      124.69779      198.22368    
    103600   993.60723      87.147655     -81375.725      3082201.2      124.6952       124.69735      198.22299    
    103700   1002.4144     -25.585397     -81287.904      3083337.1      124.71051      124.71267      198.24734    
    103800   998.91194     -21.421418     -81342.907      3082461.2      124.6987       124.70086      198.22857    
    103900   1001.3642      122.09323     -81391.705      3079304.4      124.65612      124.65828      198.16087    
    104000   996.77027     -75.480196     -81382.689      3081368        124.68396      124.68612      198.20513    
    104100   1000.8445     -47.161853     -81340.326      3081366.6      124.68394      124.6861       198.2051     
    104200   997.28864      93.278293     -81376.227      3079782.7      124.66257      124.66473      198.17113    
    104300   998.89871     -2.9951356     -81394.997      3079793.4      124.66272      124.66487      198.17136    
    104400   1000.8699     -108.26366     -81357.38       3081236.1      124.68218      124.68434      198.2023     
    104500   1002.8552      1.849492      -81299.919      3081467.2      124.6853       124.68745      198.20726    
    104600   1000.9015     -46.437247     -81315.949      3081936.7      124.69163      124.69379      198.21732    
    104700   994.37391     -98.610133     -81382.878      3081846.9      124.69042      124.69257      198.2154     
    104800   1002.3445      165.12799     -81395.928      3078130.8      124.64028      124.64244      198.1357     
    104900   994.39731      80.765723     -81429.986      3079736.3      124.66195      124.6641       198.17014    
    105000   998.69284     -170.11631     -81360.341      3083475.2      124.71237      124.71453      198.2503     
    105100   1002.2934      234.46613     -81353.936      3079861.8      124.66364      124.6658       198.17283    
    105200   998.45679     -59.978024     -81410.024      3081674.4      124.68809      124.69025      198.2117     
    105300   999.91058     -119.65053     -81363.37       3083206.1      124.70875      124.7109       198.24453    
    105400   1000.2921      300.94028     -81390.811      3079284.6      124.65585      124.65801      198.16045    
    105500   994.84281     -141.92696     -81427.747      3083301.4      124.71003      124.71219      198.24658    
    105600   1001.6982     -18.531241     -81365.819      3082833.8      124.70373      124.70588      198.23655    
    105700   996.47886      168.95198     -81426.84       3080163.7      124.66771      124.66987      198.1793     
    105800   1000.5398     -116.49275     -81375.37       3082478.5      124.69894      124.70109      198.22894    
    105900   1000.0343      22.691274     -81351.746      3081871.9      124.69076      124.69291      198.21593    
    106000   992.04281      95.259742     -81430.218      3080036.5      124.666        124.66815      198.17658    
    106100   989.10904      122.74648     -81491.795      3078281.6      124.64232      124.64447      198.13893    
    106200   1001.0131      176.56207     -81422.546      3077298.3      124.62904      124.6312       198.11783    
    106300   999.07115     -102.85921     -81384.007      3080483.4      124.67203      124.67418      198.18616    
    106400   1006.5186      71.532123     -81294.384      3079873.7      124.6638       124.66596      198.17308    
    106500   997.7817       60.00593      -81377.57       3079306.6      124.65615      124.6583       198.16092    
    106600   993.97213     -210.55156     -81444.883      3080367.4      124.67046      124.67262      198.18367    
    106700   1001.4464      197.74518     -81415.835      3076458.1      124.6177       124.61985      198.0998     
    106800   1000.3036     -24.901697     -81379.75       3078856.8      124.65008      124.65223      198.15127    
    106900   996.23287     -59.996838     -81376.659      3079229.9      124.65511      124.65727      198.15927    
    107000   1003.5427      154.51013     -81368.879      3076059.4      124.61232      124.61447      198.09124    
    107100   998.13101     -131.27462     -81413.443      3077890.6      124.63704      124.63919      198.13054    
    107200   993.11382     -24.629223     -81504.341      3075054        124.59874      124.60089      198.06966    
    107300   1001.4617      102.33726     -81438.773      3073790.4      124.58167      124.58382      198.04252    
    107400   998.06512     -42.823877     -81422.194      3075550.2      124.60544      124.60759      198.08031    
    107500   997.54745      57.751499     -81338.993      3076436.6      124.61741      124.61956      198.09934    
    107600   1011.435       255.02199     -81247.831      3074990.4      124.59788      124.60003      198.06829    
    107700   1000.3921     -208.56774     -81358.564      3078062.4      124.63936      124.64151      198.13423    
    107800   996.22125      46.764386     -81439.965      3074900        124.59666      124.59881      198.06635    
    107900   1005.2382      158.24012     -81390.067      3073992.3      124.5844       124.58655      198.04686    
    108000   991.80582     -229.01905     -81459.263      3077626.3      124.63347      124.63563      198.12487    
    108100   1007.7888      92.624517     -81425.16       3073456.2      124.57715      124.57931      198.03535    
    108200   997.05712     -56.410405     -81443.4        3076175.8      124.61389      124.61604      198.09374    
    108300   998.74658     -115.747       -81399.693      3077799.6      124.63581      124.63797      198.12859    
    108400   1004.8034      157.5398      -81364.929      3075642.6      124.60669      124.60884      198.08229    
    108500   993.77907     -61.356764     -81434.9        3077624.6      124.63345      124.6356       198.12484    
    108600   1001.5041      10.785307     -81423.712      3076066.5      124.61241      124.61457      198.09139    
    108700   1000.2677      69.347124     -81482.002      3074636.8      124.5931       124.59526      198.0607     
    108800   999.23973     -168.52595     -81426.282      3077951.6      124.63786      124.64002      198.13185    
    108900   1007.5786      36.223023     -81365.909      3076258.9      124.61501      124.61716      198.09552    
    109000   999.21403     -37.928903     -81360.87       3078541.5      124.64582      124.64798      198.14451    
    109100   998.99621      17.451201     -81393.338      3077273.3      124.62871      124.63086      198.11729    
    109200   994.84417      129.15822     -81445.846      3075695.1      124.6074       124.60955      198.08342    
    109300   999.18774      49.94304      -81413.313      3076876.4      124.62335      124.6255       198.10878    
    109400   1000.5128     -24.50888      -81401.518      3077461.8      124.63125      124.63341      198.12134    
    109500   1002.7009      22.734245     -81401.172      3076294.1      124.61548      124.61764      198.09628    
    109600   996.0297      -22.109751     -81491.236      3075209.9      124.60084      124.603        198.073      
    109700   996.44587      63.446542     -81464.376      3074435.4      124.59038      124.59254      198.05637    
    109800   1006.9078     -138.60317     -81385.649      3075979.7      124.61124      124.61339      198.08953    
    109900   998.43805     -269.68913     -81460.14       3075689.1      124.60732      124.60947      198.08329    
    110000   1003.914       282.84786     -81391.015      3071498        124.55069      124.55284      197.99328    
    110100   995.07431     -48.237173     -81445.834      3074446.2      124.59053      124.59268      198.05661    
    110200   998.66887     -38.751868     -81438.998      3073697        124.58041      124.58256      198.04052    
    110300   1009.5964      92.594519     -81370.945      3071716.1      124.55364      124.55579      197.99796    
    110400   996.17327     -257.52024     -81447.644      3073802.8      124.58184      124.58399      198.04279    
    110500   999.51875      285.34486     -81436.524      3068853.5      124.51494      124.51709      197.93644    
    110600   1000.7111      46.081182     -81463.476      3070025.6      124.53079      124.53294      197.96164    
    110700   1001.2294     -375.5368      -81404.137      3073945.3      124.58376      124.58592      198.04585    
    110800   1001.0893      248.29582     -81446.023      3067068.1      124.49078      124.49294      197.89805    
    110900   994.66996      73.326015     -81486.895      3067515.6      124.49684      124.49899      197.90767    
    111000   998.92869     -85.26142      -81445.547      3068515.8      124.51037      124.51252      197.92918    
    111100   1003.1504      67.582064     -81412.196      3066404        124.4818       124.48395      197.88376    
    111200   993.81292     -63.282575     -81479.272      3066278.1      124.48009      124.48225      197.88105    
    111300   1006.0338     -77.057239     -81416.851      3065315.7      124.46707      124.46922      197.86035    
    111400   1002.0359      28.339339     -81426.854      3064147.1      124.45125      124.4534       197.8352     
    111500   992.51359     -196.05538     -81510.834      3064919.7      124.46171      124.46386      197.85183    
    111600   1002.0014      78.891151     -81452.222      3062435        124.42807      124.43022      197.79835    
    111700   1005.1888      26.531066     -81393.784      3063812.1      124.44672      124.44887      197.82799    
    111800   997.35356     -165.0411      -81473.351      3064092.5      124.45051      124.45266      197.83403    
    111900   997.69141      182.34751     -81446.753      3061500.7      124.41541      124.41756      197.77823    
    112000   1003.8754      40.86997      -81381.186      3063325.6      124.44013      124.44228      197.81752    
    112100   993.72841     -64.203524     -81474.558      3063329.6      124.44018      124.44233      197.81761    
    112200   1003.5546      111.47474     -81429.764      3060762.5      124.40541      124.40756      197.76233    
    112300   999.79688     -73.608164     -81499.565      3061149.1      124.41065      124.4128       197.77066    
    112400   998.60456     -108.74992     -81501.776      3061492.7      124.4153       124.41745      197.77806    
    112500   1000.7821      99.720021     -81445.618      3060587.8      124.40304      124.4052       197.75857    
    112600   1002.3928     -123.59084     -81427.023      3062331.4      124.42666      124.42881      197.79612    
    112700   1001.1233     -55.892516     -81438.441      3061907.1      124.42092      124.42307      197.78698    
    112800   998.19657      175.19516     -81458.852      3060552.2      124.40256      124.40471      197.7578     
    112900   1002.8591      8.9827547     -81420.512      3062189        124.42474      124.42689      197.79305    
    113000   999.5745      -244.16454     -81487.218      3063253        124.43914      124.4413       197.81596    
    113100   996.31927      75.528933     -81492.138      3061004.6      124.40869      124.41084      197.76755    
    113200   1001.3841      155.91564     -81436.938      3061270.2      124.41229      124.41444      197.77327    
    113300   997.40144     -153.71837     -81473.161      3063876.1      124.44758      124.44973      197.82937    
    113400   1000.3405      51.461288     -81471.219      3061704.6      124.41817      124.42033      197.78262    
    113500   1004.3274      33.946082     -81411.244      3062286.5      124.42606      124.42821      197.79515    
    113600   1002.5505     -153.80275     -81478.855      3062042.9      124.42276      124.42491      197.78991    
    113700   997.42813     -33.150683     -81472.55       3061805.5      124.41954      124.42169      197.7848     
    113800   1000.1833      109.59361     -81384.799      3062154.4      124.42427      124.42642      197.79231    
    113900   1002.6962     -110.17835     -81405.983      3063377        124.44082      124.44298      197.81863    
    114000   998.79783      44.670111     -81482.757      3061114        124.41017      124.41233      197.7699     
    114100   1000.4339      109.15282     -81471.66       3060898.5      124.40725      124.40941      197.76526    
    114200   1002.7465     -165.54044     -81420.731      3063606.9      124.44394      124.44609      197.82358    
    114300   997.45908      21.916057     -81420.524      3062985.7      124.43552      124.43768      197.8102     
    114400   997.2598       260.41404     -81518.402      3058588.9      124.37596      124.37811      197.71551    
    114500   992.72172     -154.03186     -81498.201      3062465        124.42847      124.43062      197.79899    
    114600   1005.8269      14.028562     -81423.434      3060590.5      124.40308      124.40523      197.75863    
    114700   999.3941      -65.995599     -81484.351      3060422        124.4008       124.40295      197.755      
    114800   997.44712     -52.976644     -81554.126      3058749.7      124.37814      124.38029      197.71897    
    114900   998.04467      65.128642     -81527.184      3058198.3      124.37066      124.37281      197.70709    
    115000   999.56624      22.68381      -81511.209      3059023        124.38184      124.38399      197.72486    
    115100   1003.0588     -9.9540415     -81449.257      3060068.6      124.39601      124.39816      197.74739    
    115200   998.85346     -27.371385     -81429.139      3061180.3      124.41107      124.41322      197.77133    
    115300   995.85829      87.717757     -81495.627      3059112.5      124.38305      124.3852       197.72679    
    115400   993.63891      76.494153     -81525.128      3058669.3      124.37705      124.3792       197.71724    
    115500   1002.3715      135.82548     -81450.284      3058216        124.3709       124.37305      197.70747    
    115600   995.85        -74.289101     -81524.364      3059100.2      124.38289      124.38504      197.72653    
    115700   1001.7371     -31.153573     -81548.801      3057290.8      124.35836      124.36051      197.68753    
    115800   1002.6773      171.25954     -81499.062      3056248.6      124.34423      124.34638      197.66507    
    115900   998.65718     -290.68192     -81492.886      3060631        124.40363      124.40578      197.7595     
    116000   999.07229      63.530842     -81524.792      3057268.5      124.35806      124.36021      197.68705    
    116100   997.84549      295.19565     -81562.813      3055097.1      124.32861      124.33076      197.64024    
    116200   996.95278     -225.85522     -81508.864      3061340.6      124.41324      124.41539      197.77478    
    116300   1003.6326      21.46436      -81484.523      3059152.9      124.3836       124.38575      197.72766    
    116400   1004.3475     -33.512196     -81514.465      3059051.8      124.38223      124.38438      197.72548    
    116500   995.28544     -108.73973     -81602.322      3059013.7      124.38171      124.38386      197.72466    
    116600   1001.2964      175.49385     -81538.468      3057450.7      124.36053      124.36268      197.69098    
    116700   1004.87       -138.60195     -81474.773      3061160.5      124.4108       124.41295      197.77091    
    116800   1000.0678     -127.81167     -81485.187      3061250.6      124.41202      124.41418      197.77285    
    116900   1000.2141      315.97892     -81562.177      3055419        124.33297      124.33512      197.64718    
    117000   1000.1456     -158.33651     -81561.514      3059674.9      124.39067      124.39282      197.73891    
    117100   1005.564      -248.99234     -81480.498      3061694.7      124.41804      124.42019      197.78241    
    117200   1005.1433      36.654027     -81472.345      3059769.6      124.39196      124.39411      197.74095    
    117300   999.59117     -11.77851      -81543.766      3059217.5      124.38448      124.38663      197.72905    
    117400   1000.2123     -97.70162      -81530.753      3060315.7      124.39936      124.40151      197.75271    
    117500   999.84155      52.893385     -81528.444      3059364.5      124.38647      124.38862      197.73222    
    117600   1001.4286      51.360404     -81489.234      3059664.4      124.39053      124.39268      197.73868    
    117700   997.67271     -27.266513     -81516.735      3059685.3      124.39082      124.39297      197.73913    
    117800   1002.3855     -11.014104     -81524.736      3058660.2      124.37692      124.37907      197.71704    
    117900   1001.8882     -26.70099      -81461.314      3060237        124.39829      124.40044      197.75102    
    118000   999.24311      62.085564     -81508.77       3058834.1      124.37928      124.38143      197.72079    
    118100   997.27967      124.16007     -81574.963      3056983.9      124.3542       124.35635      197.68092    
    118200   994.03001      76.781479     -81565.374      3058321.8      124.37233      124.37449      197.70975    
    118300   1000.5308     -79.887846     -81479.223      3060942.9      124.40786      124.41001      197.76622    
    118400   999.04161      21.144467     -81543.906      3059384.9      124.38674      124.38889      197.73266    
    118500   999.32732      50.959868     -81553.988      3059545.4      124.38892      124.39107      197.73612    
    118600   1004.297      -4.4787035     -81520.01       3060506.4      124.40194      124.40409      197.75682    
    118700   996.43782     -57.886743     -81586.178      3061201.5      124.41136      124.41351      197.77179    
    118800   1004.4945     -16.991848     -81519.607      3061820.1      124.41974      124.42189      197.78511    
    118900   1002.4228     -96.290852     -81519.465      3063166.9      124.43798      124.44013      197.8141     
    119000   1006.3326     -33.866064     -81480.042      3063317        124.44001      124.44216      197.81734    
    119100   997.20773      14.022617     -81510.8        3063668        124.44476      124.44692      197.82489    
    119200   1000.4376     -1.1036462     -81529.093      3062497.6      124.42892      124.43107      197.7997     
    119300   1000.1732     -0.24133551    -81553.936      3061639.2      124.41729      124.41944      197.78121    
    119400   1001.199      -49.798448     -81553.734      3061516.9      124.41563      124.41778      197.77858    
    119500   995.58346      105.95962     -81604.149      3059753.3      124.39174      124.39389      197.7406     
    119600   1000.1312     -8.4373406     -81534.577      3061967.2      124.42173      124.42388      197.78828    
    119700   997.19095     -9.5783002     -81547.511      3062708.9      124.43178      124.43393      197.80425    
    119800   1004.7839     -0.44394521    -81527.911      3062243.2      124.42547      124.42762      197.79422    
    119900   998.8879      -170.75942     -81538.022      3064569.3      124.45697      124.45912      197.84429    
    120000   1002.7954      180.03254     -81560.646      3061016.8      124.40886      124.41101      197.76781    
    120100   997.81192      20.94947      -81619.253      3061831.9      124.4199       124.42205      197.78536    
    120200   998.31841     -211.21627     -81588.722      3063985.7      124.44907      124.45122      197.83173    
    120300   1006.2036      225.23325     -81506.702      3060618.2      124.40346      124.40561      197.75923    
    120400   998.26842     -55.14314      -81513.362      3063702.3      124.44523      124.44738      197.82563    
    120500   1002.7828     -104.28623     -81571.318      3062292.8      124.42614      124.42829      197.79529    
    120600   1003.7926     -23.718811     -81567.711      3062415.7      124.42781      124.42996      197.79793    
    120700   998.36845     -38.114476     -81517.073      3065146.5      124.46478      124.46693      197.85671    
    120800   1003.1368      120.90739     -81514.266      3063335.4      124.44026      124.44241      197.81773    
    120900   1001.3928     -129.30376     -81547.742      3065617.1      124.47115      124.4733       197.86683    
    121000   1009.8031     -171.4138      -81509.697      3066095.8      124.47763      124.47978      197.87713    
Loop time of 565.66 on 32 procs for 50000 steps with 55104 atoms

Performance: 7.637 ns/day, 3.143 hours/ns, 88.392 timesteps/s, 4.871 Matom-step/s
99.9% CPU use with 32 MPI tasks x 1 OpenMP threads

MPI task timing breakdown:
Section |  min time  |  avg time  |  max time  |%varavg| %total
---------------------------------------------------------------
Pair    | 3.316      | 216.35     | 519.68     |1190.5 | 38.25
Bond    | 0.0022561  | 0.005381   | 0.010103   |   2.8 |  0.00
Neigh   | 0.05921    | 3.9297     | 9.8137     | 166.5 |  0.69
Comm    | 12.876     | 322.51     | 539.83     | 979.9 | 57.02
Output  | 1.4087     | 3.3488     | 5.3276     |  63.0 |  0.59
Modify  | 7.1086     | 16.268     | 31.979     | 156.7 |  2.88
Other   |            | 3.245      |            |       |  0.57

Nlocal:           1722 ave        3913 max          49 min
Histogram: 7 5 0 8 0 0 3 1 4 4
Nghost:        4203.34 ave        7598 max        1178 min
Histogram: 4 4 0 4 8 0 7 1 0 4
Neighs:         289745 ave      705316 max        3933 min
Histogram: 8 4 5 3 0 2 1 3 2 4

Total # of neighbors = 9271832
Ave neighs/atom = 168.2606
Ave special neighs/atom = 0
Neighbor list builds = 450
Dangerous builds = 0

velocity ext create 1000.0 1230

unfix T
fix T ext npt temp 1000.0 0.1 0.05 iso 1 1 0.5
thermo_style custom step temp press etotal vol lx ly lz
thermo 100
timestep 0.0005

run ${step_calc_2}
run 50000
Generated 0 of 0 mixed pair_coeff terms from geometric mixing rule
Per MPI rank memory allocation (min/avg/max) = 7.594 | 8.829 | 10.6 Mbytes
   Step          Temp          Press          TotEng         Volume           Lx             Ly             Lz      
    121000   1000          -195.73798     -81579.521      3066095.8      124.47763      124.47978      197.87713    
    121100   998.20263      118.21106     -81581.461      3063758.9      124.44599      124.44815      197.82685    
    121200   1000.4783     -40.9377       -81578.346      3064377.6      124.45437      124.45652      197.84016    
    121300   991.2662      -83.641218     -81618.099      3064404.8      124.45474      124.45689      197.84075    
    121400   995.17911      63.400064     -81655.498      3061142.8      124.41056      124.41271      197.77052    
    121500   992.22727      74.686623     -81707.589      3059866.9      124.39328      124.39543      197.74304    
    121600   990.94278     -77.631671     -81750.162      3060151.6      124.39713      124.39929      197.74918    
    121700   986.9554       69.930877     -81794.492      3058244.7      124.37129      124.37344      197.70809    
    121800   985.64995     -25.54616      -81820.537      3058137.7      124.36984      124.37199      197.70579    
    121900   986.87288     -77.796393     -81870.47       3056953.6      124.35379      124.35594      197.68027    
    122000   981.4961       219.81125     -81912.509      3054272.4      124.31742      124.31957      197.62246    
    122100   979.43689     -185.95682     -81941.126      3057061.9      124.35525      124.3574       197.6826     
    122200   975.70625     -12.295667     -81986.092      3055110.9      124.32879      124.33094      197.64054    
    122300   976.46247      235.0588      -82023.672      3052446.9      124.29265      124.2948       197.58308    
    122400   973.73616     -188.87671     -82053.473      3055825.4      124.33849      124.34064      197.65595    
    122500   968.19379     -5.6972028     -82070.92       3054916        124.32615      124.3283       197.63634    
    122600   972.09134      135.47598     -82078.557      3053260.7      124.30369      124.30584      197.60063    
    122700   963.85472     -87.888044     -82130.056      3055250.4      124.33069      124.33284      197.64355    
    122800   966.97576     -124.81849     -82143.893      3054610.9      124.32201      124.32416      197.62975    
    122900   969.76225      159.34597     -82183.406      3050790.8      124.27016      124.27231      197.54733    
    123000   963.49627      1.8852037     -82242.328      3051573.5      124.28079      124.28294      197.56423    
    123100   957.33315     -112.62803     -82289.898      3052496.8      124.29332      124.29547      197.58415    
    123200   955.57183      111.9562      -82315.225      3050601.3      124.26759      124.26974      197.54325    
    123300   961.10471     -122.57361     -82354.028      3050614.7      124.26777      124.26992      197.54353    
    123400   955.32         87.482987     -82416.312      3048134.9      124.23409      124.23624      197.48999    
    123500   949.28019      72.753994     -82458.631      3048136.2      124.23411      124.23626      197.49002    
    123600   947.79822     -175.63333     -82475.659      3049957.1      124.25884      124.26099      197.52934    
    123700   947.28137      111.4137      -82499.883      3047348.1      124.2234       124.22555      197.473      
    123800   944.69995      17.03415      -82544.978      3047419.4      124.22437      124.22652      197.47454    
    123900   940.16308     -105.29887     -82564.394      3048374.1      124.23734      124.23949      197.49516    
    124000   942.243        102.53721     -82569.845      3046402.4      124.21055      124.2127       197.45257    
    124100   943.47334     -31.614599     -82595.184      3046869.3      124.2169       124.21904      197.46266    
    124200   938.74761     -20.485084     -82633.405      3046684.2      124.21438      124.21653      197.45866    
    124300   935.95655      48.721916     -82668.869      3045851.6      124.20306      124.20521      197.44067    
    124400   933.86743     -68.375192     -82716.094      3045956.5      124.20449      124.20664      197.44294    
    124500   931.5862       32.064879     -82753.249      3044530        124.1851       124.18724      197.41211    
    124600   932.00124     -0.25346157    -82795.519      3043555.4      124.17184      124.17399      197.39104    
    124700   932.5726      -18.741897     -82845.097      3042432.9      124.15658      124.15872      197.36677    
    124800   923.80643      74.376609     -82890.988      3041847.8      124.14862      124.15076      197.35412    
    124900   923.65691     -110.00144     -82926.433      3042396.4      124.15608      124.15823      197.36598    
    125000   918.32477      103.83247     -82959.562      3040719.8      124.13327      124.13542      197.32972    
    125100   924.84237     -97.186631     -82981.893      3040976.5      124.13676      124.13891      197.33527    
    125200   920.35271      28.387014     -83040.822      3039369.7      124.1149       124.11704      197.30051    
    125300   915.17545      80.066453     -83083.682      3038600.8      124.10443      124.10657      197.28387    
    125400   912.83554     -127.02273     -83118.216      3039710.5      124.11953      124.12168      197.30789    
    125500   911.05404      62.340019     -83154.857      3037940.3      124.09544      124.09758      197.26958    
    125600   913.34342      41.214709     -83203.956      3037106.4      124.08408      124.08623      197.25153    
    125700   903.36844      35.728856     -83238.858      3038245.3      124.09959      124.10173      197.27618    
    125800   906.07037     -125.95766     -83242.32       3039460.2      124.11613      124.11827      197.30247    
    125900   902.29436      128.76241     -83278.193      3037610.6      124.09095      124.09309      197.26244    
    126000   900.92775     -70.180234     -83310.094      3038880.8      124.10824      124.11039      197.28993    
    126100   898.95117     -46.674331     -83334.852      3038554.2      124.10379      124.10594      197.28286    
    126200   899.96838      121.11613     -83357.715      3036742.4      124.07912      124.08127      197.24364    
    126300   897.89339     -59.598667     -83396.643      3037812.8      124.0937       124.09585      197.26682    
    126400   892.6698      -53.952133     -83423.706      3037956        124.09565      124.0978       197.26992    
    126500   892.54448      34.260675     -83461.876      3036113        124.07055      124.07269      197.23002    
    126600   890.89453      57.554771     -83500.254      3035076.4      124.05643      124.05857      197.20757    
    126700   883.95359     -51.240657     -83528.417      3036117.3      124.07061      124.07275      197.23011    
    126800   886.61592     -53.591627     -83538.217      3035396.5      124.06079      124.06293      197.2145     
    126900   885.88992      66.476601     -83594.082      3033096        124.02944      124.03158      197.16467    
    127000   883.47328      53.574875     -83641.359      3032333.1      124.01904      124.02118      197.14813    
    127100   878.10139     -75.850192     -83682.215      3032995.7      124.02807      124.03022      197.16249    
    127200   877.75149     -23.038077     -83717.795      3031611.3      124.0092       124.01134      197.13249    
    127300   874.78404      122.11773     -83759.222      3029812.3      123.98466      123.98681      197.09349    
    127400   873.7023      -103.99328     -83790.649      3030921.2      123.99979      124.00193      197.11753    
    127500   869.92784      40.62094      -83825.937      3029324.6      123.97801      123.98016      197.08291    
    127600   870.90434      58.50943      -83842.863      3028337.1      123.96454      123.96668      197.0615     
    127700   867.84849     -82.806705     -83873.34       3029138.5      123.97547      123.97762      197.07888    
    127800   866.5131       25.812943     -83898.936      3028010.4      123.96008      123.96222      197.05441    
    127900   865.4565       27.326625     -83925.807      3027634.6      123.95495      123.9571       197.04626    
    128000   863.84098     -70.245031     -83966.516      3027782.5      123.95697      123.95911      197.04946    
    128100   860.10736      72.683657     -84004.612      3026256.5      123.93614      123.93828      197.01635    
    128200   859.79234     -28.599186     -84044.444      3026201.1      123.93539      123.93753      197.01515    
    128300   857.61181     -45.455415     -84090.004      3025509.6      123.92594      123.92809      197.00014    
    128400   853.17287      107.8021      -84130.13       3023924.8      123.9043       123.90645      196.96574    
    128500   851.07435     -51.396277     -84169.905      3024430.9      123.91121      123.91336      196.97673    
    128600   850.18634     -37.489121     -84196.088      3023766.2      123.90214      123.90428      196.9623     
    128700   849.77225      94.250455     -84237.69       3022003.2      123.87805      123.88019      196.92401    
    128800   845.44964     -6.7891714     -84269.112      3022814.7      123.88914      123.89128      196.94164    
    128900   842.6712      -116.73416     -84299.012      3023481.9      123.89825      123.9004       196.95613    
    129000   841.58792      142.43653     -84335.23       3020734        123.86071      123.86285      196.89644    
    129100   842.01377     -18.278911     -84370.793      3021100.3      123.86571      123.86786      196.9044     
    129200   838.5931      -100.82438     -84402.888      3021589.2      123.87239      123.87454      196.91502    
    129300   838.10835      122.7204      -84449.219      3019043.7      123.8376       123.83974      196.85971    
    129400   836.83755     -5.5867087     -84487.43       3019598.7      123.84519      123.84733      196.87177    
    129500   827.26392     -91.415672     -84530.759      3020943.5      123.86357      123.86571      196.90099    
    129600   831.60295      64.802595     -84551.583      3018953.3      123.83636      123.83851      196.85774    
    129700   827.67287      44.551044     -84595.548      3018636.7      123.83204      123.83418      196.85086    
    129800   821.06451     -97.621815     -84612.041      3020067.3      123.85159      123.85374      196.88195    
    129900   827.00006      19.968552     -84615.451      3018261.1      123.8269       123.82904      196.8427     
    130000   823.10559      107.15821     -84663.813      3016937        123.80879      123.81093      196.81391    
    130100   817.72738     -99.151562     -84692.937      3018505.5      123.83024      123.83238      196.84801    
    130200   819.89732     -30.661569     -84717.054      3017034.2      123.81012      123.81226      196.81602    
    130300   815.66622      157.01217     -84765.62       3014988.3      123.78213      123.78427      196.77152    
    130400   815.91946     -145.00206     -84799.406      3016431.1      123.80187      123.80401      196.80291    
    130500   811.25071      42.504489     -84840.949      3014763.8      123.77905      123.78119      196.76664    
    130600   810.7604       82.379561     -84875.32       3013744.7      123.7651       123.76724      196.74446    
    130700   804.29719     -63.956196     -84910.237      3014956.6      123.78169      123.78383      196.77083    
    130800   809.33467     -74.530254     -84925.019      3014009.2      123.76873      123.77087      196.75022    
    130900   806.96855      138.63415     -84975.964      3011422.1      123.7333       123.73544      196.69391    
    131000   801.69938     -21.455213     -85016.104      3012311.7      123.74549      123.74763      196.71328    
    131100   798.23867     -126.37932     -85046.165      3012782.9      123.75194      123.75408      196.72353    
    131200   799.48537      128.4898      -85081.239      3009983.6      123.7136       123.71574      196.66258    
    131300   794.71478      32.750163     -85120.822      3010608.4      123.72216      123.7243       196.67619    
    131400   794.55029     -186.53748     -85149.313      3011817.6      123.73872      123.74086      196.70252    
    131500   793.43418      175.40526     -85188.543      3008422        123.6922       123.69434      196.62857    
    131600   791.39784      12.938747     -85228.473      3009154        123.70223      123.70437      196.64451    
    131700   782.85825     -112.43895     -85255.753      3010762.2      123.72426      123.7264       196.67954    
    131800   791.93644     -34.869928     -85257.807      3008785.8      123.69719      123.69932      196.6365     
    131900   782.33606      213.74475     -85314.334      3006793        123.66987      123.67201      196.59307    
    132000   783.3819      -238.45173     -85339.808      3009243.7      123.70346      123.7056       196.64647    
    132100   777.57295      88.333612     -85382.273      3006374.9      123.66414      123.66628      196.58396    
    132200   780.31492      118.95996     -85413.248      3005140.2      123.64721      123.64934      196.55705    
    132300   774.95564     -139.62052     -85455.71       3007194.1      123.67537      123.67751      196.60181    
    132400   774.79897      10.433064     -85482.695      3005589.7      123.65337      123.65551      196.56684    
    132500   771.93012      124.88127     -85524.081      3004192.7      123.63421      123.63635      196.53638    
    132600   772.33222     -156.06311     -85561.07       3005398.4      123.65075      123.65289      196.56267    
    132700   767.39244      76.150106     -85600.636      3003234.2      123.62106      123.6232       196.51548    
    132800   764.34808      68.578815     -85628.623      3002938.4      123.617        123.61914      196.50903    
    132900   763.7775      -164.57609     -85655.142      3004198.7      123.63429      123.63643      196.53651    
    133000   761.43013      159.03696     -85694.81       3001421.1      123.59618      123.59831      196.47593    
    133100   760.79255     -0.27465748    -85712.576      3002441.1      123.61018      123.61231      196.49818    
    133200   759.60046     -216.062       -85747.099      3003514.2      123.6249       123.62704      196.52159    
    133300   755.56702      277.58107     -85786.278      2999501.3      123.56982      123.57196      196.43403    
    133400   755.39516     -95.902363     -85817.656      3001775.9      123.60105      123.60318      196.48367    
    133500   752.07263     -186.70619     -85856.427      3001992.6      123.60402      123.60616      196.4884     
    133600   750.65602      295.94162     -85893.976      2997600        123.54371      123.54584      196.39251    
    133700   748.90669     -114.04927     -85932.641      3000011.5      123.57683      123.57896      196.44516    
    133800   743.76592     -132.90044     -85962.318      3000072.7      123.57767      123.5798       196.4465     
    133900   745.13338      206.51887     -85984.153      2996793.4      123.53262      123.53476      196.3749     
    134000   741.89636     -78.490279     -86026.589      2998497.1      123.55603      123.55816      196.4121     
    134100   740.68383     -110.33639     -86051.385      2998428.9      123.55509      123.55723      196.41061    
    134200   739.28307      179.69851     -86092.55       2995588.5      123.51606      123.5182       196.34857    
    134300   736.26457     -56.592854     -86126.54       2997243.1      123.5388       123.54094      196.38472    
    134400   733.46971     -88.888834     -86164.009      2997529.5      123.54274      123.54487      196.39097    
    134500   733.12463      147.99443     -86198.241      2995480.3      123.51458      123.51671      196.34621    
    134600   726.62533     -16.679486     -86233.261      2997206.3      123.5383       123.54043      196.38392    
    134700   728.70695     -167.40937     -86240.552      2998178.8      123.55166      123.55379      196.40515    
    134800   726.95635      170.43277     -86279.632      2995204.7      123.51079      123.51292      196.34019    
    134900   725.45462      9.7999873     -86313.738      2996212.8      123.52465      123.52678      196.36221    
    135000   720.23017     -144.70341     -86350.019      2997550.3      123.54302      123.54516      196.39143    
    135100   722.46356      82.632505     -86385.643      2994845.1      123.50585      123.50798      196.33233    
    135200   719.10259      63.014782     -86429.181      2994543.2      123.5017       123.50383      196.32573    
    135300   716.26194     -142.50878     -86464.419      2995919        123.52061      123.52274      196.3558     
    135400   713.51025      103.56909     -86505.854      2993784.1      123.49126      123.49339      196.30914    
    135500   712.34926      18.821541     -86536.955      2993993.7      123.49414      123.49628      196.31372    
    135600   709.52128     -119.02691     -86571.773      2994705.5      123.50393      123.50606      196.32928    
    135700   707.99746      107.51612     -86601.062      2992691.9      123.47624      123.47838      196.28527    
    135800   703.53035     -6.9976911     -86623.269      2993611        123.48888      123.49101      196.30536    
    135900   704.60696     -121.30976     -86645.454      2993831.4      123.49191      123.49405      196.31018    
    136000   704.20998      144.17611     -86678.416      2991285.4      123.45689      123.45903      196.25451    
    136100   700.54809      16.74231      -86715.386      2992327.3      123.47123      123.47336      196.27729    
    136200   696.85111     -126.54018     -86743.966      2993707.1      123.4902       123.49234      196.30746    
    136300   695.42637      78.073591     -86776.228      2991915.6      123.46556      123.4677       196.26829    
    136400   695.19125      38.981174     -86812.411      2991798.7      123.46396      123.46609      196.26574    
    136500   692.64813     -120.45614     -86844.284      2992782.5      123.47749      123.47962      196.28725    
    136600   691.47809      54.412855     -86883.413      2990731.9      123.44928      123.45141      196.24241    
    136700   688.08015      60.424655     -86919.567      2990159.9      123.44141      123.44354      196.22989    
    136800   685.94486     -117.867       -86955.47       2990828.3      123.45061      123.45274      196.24452    
    136900   684.52753      87.954884     -86988.506      2988903.1      123.42411      123.42624      196.2024     
    137000   681.71908      54.448969     -87028.706      2988982.8      123.42521      123.42734      196.20414    
    137100   678.00148     -99.137048     -87048.297      2990512.5      123.44626      123.44839      196.23761    
    137200   678.31418      0.7954712     -87066.439      2989540.4      123.43288      123.43502      196.21634    
    137300   676.59358      77.096301     -87105.781      2988588.5      123.41978      123.42191      196.19551    
    137400   676.52792     -83.729455     -87139.136      2989373.2      123.43058      123.43272      196.21268    
    137500   671.72181      63.518556     -87180.706      2988311.2      123.41596      123.4181       196.18945    
    137600   669.17767     -7.6541309     -87209.332      2988719.2      123.42158      123.42371      196.19837    
    137700   668.49605     -92.15137      -87240.747      2988887.4      123.42389      123.42603      196.20206    
    137800   665.63733      117.27732     -87278.152      2986931.2      123.39696      123.3991       196.15924    
    137900   665.05058     -29.152751     -87308.768      2987562.7      123.40566      123.40779      196.17307    
    138000   659.62064     -44.932987     -87337.32       2987968.7      123.41125      123.41338      196.18195    
    138100   663.68024     -8.4387213     -87366.031      2986561.5      123.39187      123.394        196.15115    
    138200   659.89001      112.40313     -87411.237      2985346.2      123.37513      123.37727      196.12454    
    138300   655.491       -108.88709     -87446.597      2986952.9      123.39726      123.39939      196.15972    
    138400   652.95866     -7.1075387     -87484.526      2985799        123.38137      123.3835       196.13445    
    138500   653.83584      84.661974     -87518.931      2984186.7      123.35916      123.36129      196.09914    
    138600   647.40927     -29.23583      -87557.286      2984988        123.3702       123.37233      196.11669    
    138700   648.99277     -91.830477     -87572.468      2984789.2      123.36746      123.36959      196.11234    
    138800   647.75844      113.37514     -87616.514      2982426.1      123.33489      123.33703      196.06057    
    138900   641.96994      60.71008      -87650.626      2982972.8      123.34243      123.34456      196.07255    
    139000   642.01604     -196.6143      -87669.902      2984610.7      123.365        123.36713      196.10843    
    139100   638.28711      134.82297     -87699.347      2982146.7      123.33104      123.33317      196.05445    
    139200   639.40012     -11.991547     -87730.874      2982432.7      123.33498      123.33712      196.06072    
    139300   636.74219     -59.055318     -87763.904      2982598        123.33726      123.33939      196.06434    
    139400   635.59387      60.627319     -87799.519      2981274.7      123.31902      123.32115      196.03534    
    139500   631.21218      37.097166     -87838.475      2981608.3      123.32362      123.32575      196.04265    
    139600   629.26726     -76.122731     -87864.197      2982745.2      123.33929      123.34142      196.06756    
    139700   629.69965     -5.2363219     -87897.819      2981873.6      123.32728      123.32941      196.04846    
    139800   626.41953      95.981527     -87939.237      2980935.7      123.31434      123.31648      196.02791    
    139900   624.53566     -119.66771     -87967.266      2982131.4      123.33083      123.33296      196.05411    
    140000   621.64339      18.964116     -88006.24       2980583        123.30948      123.31161      196.02018    
    140100   620.89823      80.424348     -88038.876      2979489.6      123.2944       123.29653      195.9962     
    140200   617.19785     -82.636228     -88076.231      2980240        123.30475      123.30688      196.01266    
    140300   614.92435      35.881192     -88102.122      2979044.9      123.28827      123.2904       195.98645    
    140400   614.71395      29.478279     -88133.781      2978555.5      123.28151      123.28365      195.97572    
    140500   610.01433     -25.250631     -88157.992      2979241.5      123.29098      123.29311      195.99076    
    140600   609.93162     -21.267131     -88177.965      2979059.2      123.28846      123.29059      195.98677    
    140700   610.3149       17.858098     -88209.698      2978266.4      123.27753      123.27966      195.96938    
    140800   606.09024      33.350536     -88243.861      2978321.5      123.27829      123.28042      195.97059    
    140900   605.92935     -76.54398      -88274.785      2978866.4      123.2858       123.28793      195.98254    
    141000   602.33896      76.565062     -88320.189      2977604.2      123.26839      123.27052      195.95485    
    141100   600.0081      -3.8616622     -88348.379      2978182.8      123.27637      123.2785       195.96755    
    141200   597.14894     -85.890728     -88383.897      2978678        123.2832       123.28534      195.97841    
    141300   595.83235      102.00505     -88411.502      2977204.6      123.26287      123.26501      195.94609    
    141400   595.08658     -44.718661     -88448.591      2977816.2      123.27131      123.27345      195.9595     
    141500   591.39626     -15.246842     -88478.159      2977551.2      123.26766      123.26979      195.95369    
    141600   590.68922      35.626255     -88511.115      2976767.3      123.25684      123.25897      195.93649    
    141700   587.55422     -18.298398     -88541.315      2977016.4      123.26028      123.26241      195.94196    
    141800   586.74025     -18.844047     -88576.083      2976564.4      123.25404      123.25617      195.93204    
    141900   585.08274      68.125138     -88608.315      2975744        123.24271      123.24484      195.91404    
    142000   580.90528     -45.212041     -88644.076      2976597.8      123.2545       123.25663      195.93277    
    142100   580.85512     -30.927794     -88670.167      2976211.1      123.24916      123.25129      195.92429    
    142200   577.53642      93.495799     -88707.938      2975189.7      123.23506      123.23719      195.90187    
    142300   576.39757     -67.132155     -88737.073      2976020.6      123.24653      123.24866      195.92011    
    142400   572.52957     -5.3349562     -88765.848      2975521.7      123.23964      123.24178      195.90916    
    142500   572.46328      48.519704     -88792.37       2974665.3      123.22782      123.22995      195.89036    
    142600   570.65412     -36.735191     -88822.744      2975036.8      123.23295      123.23508      195.89852    
    142700   569.37556     -17.025961     -88853.778      2974603        123.22696      123.22909      195.889      
    142800   567.68175      72.62364      -88893.553      2973602.5      123.21314      123.21527      195.86703    
    142900   564.42505     -45.408198     -88929.341      2974275.1      123.22243      123.22456      195.8818     
    143000   558.41344     -2.8440364     -88959.281      2974205.8      123.22147      123.22361      195.88028    
    143100   562.28404     -10.748748     -88976.781      2973463.9      123.21123      123.21336      195.86399    
    143200   560.64156      31.445633     -89020.535      2972610.2      123.19943      123.20156      195.84524    
    143300   555.18096      49.206761     -89062.146      2972603.4      123.19934      123.20147      195.84509    
    143400   553.83756     -107.42519     -89086.103      2973681.9      123.21424      123.21637      195.86877    
    143500   552.4004       56.808559     -89124.487      2972184        123.19355      123.19568      195.83588    
    143600   549.60872      82.229898     -89155.385      2972036        123.1915       123.19363      195.83263    
    143700   547.59563     -155.96686     -89187.33       2973808.8      123.21599      123.21812      195.87156    
    143800   546.45435      84.046103     -89218.789      2971827.5      123.18862      123.19075      195.82805    
    143900   543.25703      63.200847     -89251.423      2971825.2      123.18859      123.19072      195.828      
    144000   543.43646     -177.80643     -89277.993      2973127.9      123.20659      123.20872      195.85661    
    144100   539.06005      172.05901     -89312.149      2970734.3      123.17351      123.17564      195.80403    
    144200   540.37308     -41.522965     -89342.21       2971872.2      123.18924      123.19137      195.82903    
    144300   533.9699      -67.842609     -89376.888      2972433.6      123.19699      123.19912      195.84136    
    144400   533.0588       86.041249     -89394.775      2971162.6      123.17943      123.18156      195.81344    
    144500   534.22858     -72.031202     -89426.165      2971567.5      123.18503      123.18716      195.82234    
    144600   530.24493      44.132641     -89460.653      2970750.1      123.17373      123.17586      195.80438    
    144700   528.4208       13.605986     -89494.202      2970805.6      123.1745       123.17663      195.8056     
    144800   526.24257     -41.79317      -89530.202      2971046.2      123.17782      123.17995      195.81089    
    144900   525.287        16.403805     -89564.056      2970125.1      123.16509      123.16722      195.79065    
    145000   520.72887      45.847401     -89598.67       2969880.2      123.16171      123.16384      195.78527    
    145100   520.17338     -84.968192     -89625.51       2970474        123.16992      123.17205      195.79832    
    145200   518.79106      50.06976      -89660.103      2969038.1      123.15007      123.1522       195.76676    
    145300   516.02356      54.859745     -89693.231      2968784.7      123.14656      123.14869      195.76119    
    145400   512.07744     -98.159261     -89718.714      2969983.5      123.16314      123.16527      195.78754    
    145500   512.0247       37.329378     -89743.83       2968587.7      123.14384      123.14597      195.75686    
    145600   509.93613      93.941838     -89772.83       2968108.9      123.13722      123.13935      195.74634    
    145700   507.75365     -133.23398     -89797.984      2969879.6      123.1617       123.16383      195.78525    
    145800   505.75799      47.234207     -89822.513      2968654.8      123.14477      123.1469       195.75834    
    145900   507.65896      33.9445       -89855.973      2968066.4      123.13663      123.13876      195.7454     
    146000   503.54425     -51.554034     -89895.745      2968461.1      123.14209      123.14422      195.75408    
    146100   498.97461      32.485399     -89933.013      2967686        123.13137      123.1335       195.73704    
    146200   499.79006     -21.393216     -89966.143      2967311.5      123.12619      123.12832      195.72881    
    146300   496.44095      16.2142       -90006.236      2966663.9      123.11723      123.11936      195.71457    
    146400   493.3328       38.698062     -90042.283      2966355.6      123.11297      123.1151       195.70779    
    146500   490.69754     -58.204124     -90068.615      2966968.3      123.12144      123.12357      195.72126    
    146600   490.01151      12.118962     -90099.637      2965953.4      123.1074       123.10953      195.69894    
    146700   488.81636      63.055634     -90128.787      2965214.6      123.09718      123.09931      195.68269    
    146800   485.94111     -82.59852      -90162.359      2966065.7      123.10896      123.11109      195.70141    
    146900   482.33102      71.83537      -90190.644      2965030.2      123.09463      123.09676      195.67863    
    147000   481.68471     -10.342988     -90212.376      2965407.9      123.09986      123.10198      195.68694    
    147100   479.82612     -79.949877     -90239.678      2965583.1      123.10228      123.10441      195.6908     
    147200   480.94935      74.541443     -90269.843      2963653        123.07557      123.0777       195.64833    
    147300   477.37126      46.94304      -90309.116      2963522.1      123.07376      123.07588      195.64545    
    147400   472.71299     -94.171671     -90342.309      2964542.9      123.08788      123.09001      195.66791    
    147500   474.13779      10.468333     -90374.089      2962975        123.06618      123.06831      195.63341    
    147600   468.97526      148.94376     -90413.263      2961852.1      123.05063      123.05276      195.60869    
    147700   467.06566     -200.18328     -90435.364      2964139.2      123.0823       123.08442      195.65903    
    147800   464.65817      62.270871     -90461.688      2961950.7      123.052        123.05413      195.61087    
    147900   465.11109      155.2478      -90491.379      2960706.1      123.03476      123.03689      195.58346    
    148000   461.19162     -195.26569     -90518.736      2963427.9      123.07245      123.07458      195.64338    
    148100   461.78493      33.491271     -90547.786      2961519.5      123.04603      123.04815      195.60137    
    148200   460.67531      176.26896     -90587.29       2960214.3      123.02795      123.03008      195.57263    
    148300   455.20409     -199.29101     -90623.474      2963141.3      123.06848      123.07061      195.63707    
    148400   454.11202      11.693866     -90655.288      2961179.7      123.04132      123.04345      195.59389    
    148500   452.0264       173.16129     -90688.38       2959460.9      123.01751      123.01964      195.55604    
    148600   449.36019     -197.95904     -90720.904      2961576        123.04681      123.04894      195.60262    
    148700   448.18091      59.326459     -90747.071      2959228.5      123.01429      123.01642      195.55092    
    148800   446.96663      111.06899     -90780.581      2958257.7      123.00084      123.00296      195.52954    
    148900   444.3788      -166.32629     -90812.224      2959873.2      123.02322      123.02535      195.56512    
    149000   439.73087      122.22021     -90844.424      2957760.5      122.99394      122.99607      195.51858    
    149100   441.56617     -14.973235     -90862.433      2958142.9      122.99924      123.00137      195.52701    
    149200   437.61566     -83.843467     -90897.137      2958489.8      123.00405      123.00618      195.53465    
    149300   435.83195      109.04423     -90921.52       2956864.6      122.98152      122.98365      195.49884    
    149400   435.57831     -68.782529     -90954.032      2957528.6      122.99073      122.99286      195.51347    
    149500   431.6415       10.005268     -90985.91       2956864.9      122.98153      122.98366      195.49885    
    149600   431.36408      27.217763     -91019.064      2956110.1      122.97106      122.97319      195.48221    
    149700   427.55682     -3.796383      -91053.328      2956128        122.97131      122.97344      195.4826     
    149800   425.72663     -26.976415     -91080.821      2956019        122.9698       122.97193      195.4802     
    149900   423.35246      40.991882     -91110.191      2955377.7      122.96091      122.96303      195.46606    
    150000   422.45902     -13.922175     -91138.012      2955587.4      122.96382      122.96594      195.47069    
    150100   421.05077     -12.676437     -91170.247      2955489        122.96245      122.96458      195.46852    
    150200   417.00982      59.089033     -91201.846      2955211.3      122.9586       122.96073      195.4624     
    150300   416.89729     -92.157742     -91228.685      2955913.8      122.96834      122.97047      195.47788    
    150400   414.62763      37.725902     -91261.771      2954630.4      122.95054      122.95267      195.44959    
    150500   412.60815      45.613419     -91294.826      2954109.7      122.94332      122.94545      195.4381     
    150600   409.79837     -67.424046     -91326.226      2954684.1      122.95129      122.95341      195.45077    
    150700   408.07974      41.95954      -91358.344      2953554.9      122.93562      122.93775      195.42587    
    150800   407.94161      9.9016046     -91390.423      2953244.2      122.93131      122.93344      195.41901    
    150900   402.65712     -18.504742     -91424.326      2953545.7      122.93549      122.93762      195.42566    
    151000   401.89777      9.1709823     -91452.198      2953034.9      122.92841      122.93053      195.4144     
    151100   400.48791      13.113418     -91480.223      2952837.6      122.92567      122.92779      195.41005    
    151200   400.03768     -61.947271     -91514.387      2952823.6      122.92548      122.9276       195.40974    
    151300   395.84348      102.1148      -91553.017      2951420.7      122.906        122.90813      195.37879    
    151400   392.8226      -41.083316     -91579.849      2952258.2      122.91763      122.91975      195.39726    
    151500   392.5661      -91.499467     -91606.002      2952080.2      122.91516      122.91728      195.39334    
    151600   390.96449      168.0749      -91642.073      2949776.1      122.88317      122.8853       195.34249    
    151700   387.23379     -65.380875     -91672.439      2951395        122.90565      122.90777      195.37822    
    151800   384.66087     -93.099613     -91697.443      2951584.9      122.90828      122.91041      195.38241    
    151900   384.75356      159.89174     -91723.703      2949468        122.87889      122.88102      195.33569    
    152000   381.62727     -66.596627     -91753.673      2951090.5      122.90142      122.90355      195.3715     
    152100   381.41879     -107.65633     -91782.113      2950993.9      122.90008      122.9022       195.36937    
    152200   377.97888      205.54294     -91816.506      2948609.3      122.86697      122.86909      195.31673    
    152300   376.95173     -143.81724     -91845.852      2950622.5      122.89492      122.89705      195.36117    
    152400   375.55369     -38.07091      -91881.814      2949326.5      122.87693      122.87905      195.33256    
    152500   371.78487      211.24318     -91917.495      2947319.9      122.84906      122.85118      195.28826    
    152600   369.06649     -204.99225     -91945.499      2949948.6      122.88557      122.88769      195.3463     
    152700   366.81512      31.484823     -91970.414      2947992.9      122.8584       122.86053      195.30312    
    152800   368.73648      108.77117     -91999.2        2946492.8      122.83756      122.83969      195.26999    
    152900   363.32729     -94.353263     -92036.314      2947718.2      122.85459      122.85671      195.29705    
    153000   361.71305     -0.63795191    -92062.002      2946590        122.83891      122.84104      195.27213    
    153100   361.18728      67.552985     -92093.461      2945462.9      122.82325      122.82537      195.24723    
    153200   358.83324     -55.134283     -92128.672      2945856.2      122.82872      122.83084      195.25592    
    153300   353.83084      39.844022     -92159.355      2945178.1      122.81929      122.82141      195.24094    
    153400   353.64006     -4.1004632     -92180.409      2945121.9      122.81851      122.82063      195.2397     
    153500   352.99694     -47.69349      -92206.964      2945058.9      122.81763      122.81976      195.23831    
    153600   350.83129      78.009532     -92242.609      2943929.5      122.80193      122.80405      195.21335    
    153700   348.2416      -10.88738      -92273.826      2944508.1      122.80998      122.8121       195.22613    
    153800   344.94872     -55.712386     -92303.145      2944884.7      122.81521      122.81734      195.23446    
    153900   344.04495      51.788017     -92327.011      2943973.5      122.80254      122.80467      195.21432    
    154000   344.04549     -29.118867     -92360.789      2943973        122.80254      122.80466      195.21431    
    154100   338.81128      31.62064      -92392.752      2943630.8      122.79778      122.7999       195.20674    
    154200   338.89104     -47.755132     -92420.386      2943653.3      122.79809      122.80021      195.20724    
    154300   335.30912      54.705057     -92452.633      2942757.8      122.78564      122.78776      195.18744    
    154400   335.66651     -46.756912     -92480.619      2942865.8      122.78714      122.78926      195.18983    
    154500   332.35909      12.180669     -92515.701      2942160.1      122.77732      122.77945      195.17423    
    154600   330.87993      26.123959     -92549.479      2941472.3      122.76776      122.76988      195.15902    
    154700   327.69266     -30.241162     -92581.552      2941451.9      122.76747      122.76959      195.15856    
    154800   325.38729      8.8673548     -92611.14       2940674.3      122.75665      122.75878      195.14137    
    154900   324.09803      18.48002      -92637.443      2940123.2      122.74898      122.75111      195.12918    
    155000   322.87275     -26.434637     -92669.332      2939945.2      122.74651      122.74863      195.12524    
    155100   319.89651      48.624282     -92701.062      2939280.7      122.73726      122.73938      195.11054    
    155200   318.63259     -48.152238     -92730.37       2939606.9      122.7418       122.74392      195.11775    
    155300   316.42821      2.0236147     -92763.55       2938796.7      122.73052      122.73264      195.09983    
    155400   314.1461       42.738339     -92793.782      2938028.5      122.71983      122.72195      195.08282    
    155500   311.90906     -40.821639     -92824.983      2938199.4      122.72221      122.72433      195.08661    
    155600   310.10785      14.372496     -92853.053      2937458.9      122.71189      122.71402      195.07022    
    155700   308.62846      11.446828     -92884.183      2936989.2      122.70535      122.70748      195.05982    
    155800   306.206       -14.809989     -92915.807      2936745.9      122.70196      122.70409      195.05443    
    155900   303.93372      21.158137     -92946.03       2936198.5      122.69434      122.69646      195.04231    
    156000   302.1184      -11.248972     -92974.166      2936152.6      122.6937       122.69582      195.0413     
    156100   298.86124      7.3622682     -93002.928      2935910.2      122.69033      122.69245      195.03593    
    156200   299.31068     -12.731754     -93029.29       2935525.7      122.68497      122.68709      195.02741    
    156300   296.81623      21.058792     -93062.058      2935032.3      122.6781       122.68022      195.01649    
    156400   293.91383     -8.0163549     -93093.01       2935013.6      122.67783      122.67996      195.01607    
    156500   291.82817     -19.164038     -93121.348      2934746.4      122.67411      122.67623      195.01015    
    156600   290.5346       23.784471     -93150.645      2933971.3      122.66331      122.66543      194.99299    
    156700   288.86115      2.1063445     -93182.772      2933671.5      122.65913      122.66125      194.98634    
    156800   285.23983     -2.6454459     -93212.485      2933531.8      122.65719      122.65931      194.98325    
    156900   285.24392     -23.991719     -93241.602      2933013.3      122.64996      122.65208      194.97176    
    157000   282.2329       53.597433     -93273.86       2932141.6      122.63781      122.63993      194.95244    
    157100   281.02378     -52.004442     -93305.406      2932301.1      122.64003      122.64215      194.95598    
    157200   276.89716      46.648789     -93337.127      2931452.7      122.6282       122.63032      194.93717    
    157300   276.34129     -11.854963     -93362.313      2931414        122.62766      122.62978      194.93632    
    157400   273.37396     -15.881369     -93389.84       2931369.9      122.62705      122.62917      194.93534    
    157500   273.09096      24.98486      -93419.363      2930713.7      122.6179       122.62002      194.92079    
    157600   271.63725      3.3580349     -93453.186      2930528.2      122.61531      122.61743      194.91668    
    157700   266.94245     -21.693612     -93483.227      2930686.5      122.61752      122.61964      194.92019    
    157800   267.56469     -13.265221     -93513.398      2929923.9      122.60688      122.609        194.90328    
    157900   263.76824      89.741184     -93546.079      2929034.6      122.59447      122.59659      194.88356    
    158000   262.01853     -108.19876     -93574.403      2930011.7      122.6081       122.61022      194.90523    
    158100   259.84647      34.261262     -93602.924      2928614.2      122.58861      122.59073      194.87423    
    158200   258.47517      65.666594     -93632.392      2927819.5      122.57752      122.57964      194.85661    
    158300   255.89853     -89.270409     -93662.531      2928491.8      122.5869       122.58902      194.87152    
    158400   254.65831      37.795927     -93691.354      2927108.2      122.56759      122.56971      194.84082    
    158500   252.13397      53.957        -93722.507      2926557.4      122.5599       122.56202      194.8286     
    158600   249.48296     -87.144145     -93750.827      2927160.9      122.56833      122.57045      194.842      
    158700   248.44024      52.274649     -93777.873      2925776.9      122.54901      122.55113      194.81128    
    158800   246.9212       43.582217     -93809.253      2925474.3      122.54478      122.5469       194.80456    
    158900   243.52607     -76.407463     -93837.992      2926322.5      122.55662      122.55874      194.82339    
    159000   242.79544      28.856347     -93867.363      2925259        122.54178      122.54389      194.79979    
    159100   240.50781      58.203699     -93897.65       2924879        122.53647      122.53859      194.79135    
    159200   238.56374     -100.80378     -93928.672      2925742        122.54852      122.55064      194.81051    
    159300   236.75533      63.047891     -93959.968      2924304.7      122.52845      122.53057      194.7786     
    159400   233.84185      40.472573     -93991.13       2924267.8      122.52793      122.53005      194.77778    
    159500   232.19129     -117.54904     -94018.808      2925055.1      122.53893      122.54105      194.79526    
    159600   230.38239      100.93918     -94049.122      2923243        122.51362      122.51574      194.75503    
    159700   228.74331      13.699327     -94079.757      2923595.6      122.51854      122.52066      194.76286    
    159800   225.67756     -104.67998     -94109.636      2924316.6      122.52861      122.53073      194.77886    
    159900   224.40175      98.051698     -94137.085      2922651.4      122.50535      122.50747      194.74189    
    160000   221.85772      5.4905658     -94167.082      2923159.9      122.51246      122.51458      194.75318    
    160100   219.98726     -103.76389     -94193.338      2923731.6      122.52044      122.52256      194.76588    
    160200   218.47127      107.49064     -94223.034      2921950.4      122.49556      122.49768      194.72632    
    160300   216.12173     -5.8621612     -94252.452      2922514.9      122.50345      122.50556      194.73885    
    160400   214.18218     -99.000921     -94279.91       2922970.9      122.50982      122.51193      194.74898    
    160500   212.57486      121.04216     -94309.902      2921212.3      122.48524      122.48736      194.70992    
    160600   210.56607     -30.728282     -94339.878      2922081.5      122.49739      122.49951      194.72923    
    160700   208.85377     -79.71602      -94370.042      2922262.9      122.49993      122.50204      194.73326    
    160800   206.52377      125.73069     -94401.507      2920724.1      122.47842      122.48054      194.69907    
    160900   204.77669     -74.985169     -94431.983      2921830.3      122.49388      122.496        194.72365    
    161000   201.92343     -24.267792     -94462.375      2921338.8      122.48701      122.48913      194.71273    
    161100   200.52275      95.164547     -94491.092      2920249.6      122.47179      122.4739       194.68853    
    161200   198.18521     -77.521131     -94520.778      2921269.9      122.48605      122.48817      194.7112     
    161300   195.83955      9.5119216     -94549.625      2920539        122.47583      122.47795      194.69496    
    161400   194.51878      54.994922     -94577.234      2919946.5      122.46755      122.46967      194.68179    
    161500   192.37224     -72.060428     -94606.413      2920600.4      122.47669      122.47881      194.69632    
    161600   190.86133      38.618196     -94637.196      2919586.5      122.46252      122.46463      194.67379    
    161700   188.82147      36.118865     -94667.863      2919462.9      122.46079      122.4629       194.67104    
    161800   186.06586     -64.894845     -94698.59       2920155.6      122.47047      122.47259      194.68644    
    161900   183.75933      46.949575     -94725.986      2919394.7      122.45983      122.46195      194.66953    
    162000   182.7806      -13.265367     -94753.719      2919550.4      122.46201      122.46413      194.67299    
    162100   180.92569     -26.527718     -94784.94       2919387        122.45973      122.46184      194.66936    
    162200   177.92607      63.63486      -94815.519      2918687        122.44994      122.45205      194.65379    
    162300   176.33393     -60.86041      -94842.45       2919305.5      122.45859      122.4607       194.66754    
    162400   174.60583      11.174083     -94872.418      2918558.5      122.44814      122.45026      194.65094    
    162500   172.54382      57.475387     -94902.065      2918068.6      122.44129      122.44341      194.64005    
    162600   170.71907     -76.556823     -94932.223      2918771.6      122.45112      122.45324      194.65568    
    162700   168.59165      43.045152     -94962.159      2917808.7      122.43765      122.43977      194.63427    
    162800   165.96906      31.101276     -94991.621      2917828        122.43792      122.44004      194.6347     
    162900   164.99637     -92.071529     -95019.557      2918361.7      122.44539      122.44751      194.64656    
    163000   162.18266      97.128311     -95051.028      2916962.5      122.42582      122.42793      194.61545    
    163100   160.26263     -17.761553     -95078.418      2917652.4      122.43547      122.43758      194.63079    
    163200   158.27626     -78.081272     -95106.448      2917938.8      122.43947      122.44159      194.63716    
    163300   156.26918      113.63977     -95135.423      2916480.4      122.41907      122.42119      194.60473    
    163400   154.70353     -61.735295     -95163.403      2917440.1      122.4325       122.43462      194.62607    
    163500   152.28154     -28.34741      -95192.809      2917069.9      122.42732      122.42944      194.61784    
    163600   150.70367      88.521678     -95221.084      2916036.3      122.41286      122.41497      194.59485    
    163700   149.13427     -87.189307     -95250.846      2916863.7      122.42443      122.42655      194.61325    
    163800   146.85615      24.440465     -95282.378      2915751        122.40887      122.41098      194.5885     
    163900   144.28071      59.075612     -95311.862      2915178.9      122.40086      122.40298      194.57578    
    164000   142.60868     -96.62626      -95339.973      2915807.5      122.40966      122.41177      194.58976    
    164100   140.85189      62.358354     -95369.939      2914313.2      122.38874      122.39086      194.55651    
    164200   138.58927      31.579888     -95399.929      2914205.8      122.38724      122.38935      194.55412    
    164300   136.45896     -90.415929     -95427.983      2914782.8      122.39531      122.39743      194.56696    
    164400   134.66461      81.897151     -95457.817      2913346.7      122.37521      122.37733      194.535      
    164500   132.46793      0.39193687    -95485.639      2913736.7      122.38067      122.38279      194.54368    
    164600   130.73534     -75.171247     -95514.691      2914065.7      122.38528      122.38739      194.55101    
    164700   128.3863       107.09537     -95543.504      2912807.7      122.36766      122.36978      194.52301    
    164800   127.0161      -62.829557     -95571.456      2913817        122.38179      122.38391      194.54547    
    164900   124.99681     -31.399166     -95601.546      2913425.5      122.37631      122.37843      194.53676    
    165000   122.74901      100.58625     -95631.904      2912335.6      122.36105      122.36317      194.5125     
    165100   120.89263     -92.213299     -95660.418      2913370        122.37554      122.37765      194.53552    
    165200   118.74403      9.5639924     -95690.031      2912377.8      122.36164      122.36376      194.51344    
    165300   116.40281      88.551318     -95719.145      2911599.3      122.35074      122.35285      194.4961     
    165400   114.88478     -112.93178     -95745.684      2912705.3      122.36623      122.36834      194.52073    
    165500   112.90173      50.678877     -95775.715      2911363.1      122.34743      122.34955      194.49084    
    165600   110.8943       54.65229      -95804.811      2911105.1      122.34382      122.34593      194.4851     
    165700   108.45931     -107.53914     -95832.369      2912035.8      122.35685      122.35897      194.50582    
    165800   107.09995      67.604957     -95860.953      2910559.4      122.33617      122.33829      194.47295    
    165900   104.97821      26.651477     -95890.061      2910597.5      122.3367       122.33882      194.47379    
    166000   103.23234     -98.049381     -95918.768      2911123.1      122.34407      122.34618      194.4855     
    166100   100.84654      96.97767      -95948.74       2909559.1      122.32216      122.32427      194.45066    
    166200   99.161566     -16.847079     -95976.772      2910085.7      122.32953      122.33165      194.46239    
    166300   96.748351     -59.233422     -96005.305      2910270.4      122.33212      122.33424      194.46651    
    166400   95.154653      78.548234     -96033.853      2909125.4      122.31608      122.31819      194.441      
    166500   93.24256      -36.254917     -96062.645      2909665        122.32364      122.32575      194.45302    
    166600   91.041186     -28.788604     -96091.313      2909390.7      122.3198       122.32191      194.44691    
    166700   89.10423       64.328124     -96120.1        2908499.3      122.3073       122.30942      194.42705    
    166800   87.237195     -41.450316     -96148.229      2908996.9      122.31428      122.31639      194.43814    
    166900   85.208719     -8.0483621     -96176.756      2908584.1      122.30849      122.3106       194.42894    
    167000   83.275446      41.979784     -96205.391      2907984.1      122.30008      122.30219      194.41557    
    167100   81.447677     -43.587111     -96233.73       2908262.9      122.30399      122.3061       194.42178    
    167200   79.322653      16.096922     -96262.666      2907600        122.29469      122.29681      194.40701    
    167300   77.453808      23.209105     -96291.129      2907279.2      122.2902       122.29231      194.39986    
    167400   75.200726     -37.231718     -96318.77       2907488.9      122.29314      122.29525      194.40453    
    167500   73.64574       20.476958     -96347.374      2906838.4      122.28402      122.28613      194.39004    
    167600   71.556264      14.577623     -96375.718      2906679.4      122.28179      122.2839       194.38649    
    167700   69.779934     -38.396079     -96404.288      2906764.1      122.28297      122.28509      194.38838    
    167800   67.534153      34.128692     -96432.574      2906056.8      122.27305      122.27517      194.37261    
    167900   65.845925     -8.207845      -96461.012      2906030.6      122.27269      122.2748       194.37203    
    168000   63.634002     -15.383238     -96489.03       2905843.7      122.27007      122.27218      194.36786    
    168100   61.720294      22.064278     -96516.915      2905315.4      122.26266      122.26477      194.35608    
    168200   60.09382      -12.856379     -96544.973      2905223.9      122.26137      122.26349      194.35404    
    168300   57.848715      1.9304893     -96573.227      2904886.9      122.25664      122.25876      194.34652    
    168400   56.013778      13.820225     -96601.047      2904574.4      122.25226      122.25437      194.33956    
    168500   54.09786      -13.174895     -96628.512      2904561.7      122.25208      122.2542       194.33927    
    168600   52.003832      4.1413778     -96656.044      2904259.3      122.24784      122.24995      194.33253    
    168700   50.615279      0.30327974    -96683.9        2903969.6      122.24377      122.24589      194.32606    
    168800   48.333177      2.8432983     -96712.105      2903722.3      122.2403       122.24242      194.32055    
    168900   46.276145     -0.1564582     -96739.407      2903516.2      122.23741      122.23953      194.31595    
    169000   44.500776     -4.4434958     -96766.579      2903273.4      122.23401      122.23612      194.31054    
    169100   42.455173      6.2213645     -96793.789      2902925.7      122.22912      122.23124      194.30278    
    169200   40.962811     -7.5595861     -96820.887      2902657.2      122.22536      122.22747      194.29679    
    169300   38.833452      13.057656     -96848.55       2902258.3      122.21976      122.22187      194.28788    
    169400   36.978077     -2.5151291     -96875.31       2902127.5      122.21792      122.22003      194.28497    
    169500   34.988797     -5.3792141     -96902.391      2901933.4      122.2152       122.21731      194.28064    
    169600   33.223793      7.8644079     -96928.988      2901587        122.21033      122.21245      194.2729     
    169700   31.410765     -6.7358812     -96955.795      2901382.5      122.20746      122.20957      194.26834    
    169800   29.510156      3.3409197     -96982.562      2901009.5      122.20222      122.20434      194.26002    
    169900   27.618143      7.1468871     -97008.958      2900707.2      122.19798      122.20009      194.25327    
    170000   25.959518     -7.9917173     -97035.262      2900539.9      122.19563      122.19774      194.24953    
    170100   23.992866      9.7436308     -97061.87       2900206        122.19094      122.19305      194.24208    
    170200   22.189834     -1.5242492     -97088.011      2900053.9      122.1888       122.19092      194.23868    
    170300   20.364909     -5.9090229     -97114.036      2899853.9      122.186        122.18811      194.23422    
    170400   18.51949       10.431023     -97140.306      2899502.4      122.18106      122.18317      194.22637    
    170500   16.777687     -7.2138683     -97166.226      2899340.9      122.17879      122.1809       194.22276    
    170600   14.840485      0.78070395    -97192.416      2899014.1      122.1742       122.17631      194.21547    
    170700   13.088328      7.7471417     -97218.872      2898673.7      122.16942      122.17153      194.20786    
    170800   11.125754     -6.6884348     -97246.039      2898490.5      122.16684      122.16896      194.20377    
    170900   9.0129201      1.1924052     -97274.938      2898137.2      122.16188      122.16399      194.19588    
    171000   5.9039254      0.29176432    -97313.136      2897770.2      122.15672      122.15884      194.18768    
Loop time of 585.641 on 32 procs for 50000 steps with 55104 atoms

Performance: 3.688 ns/day, 6.507 hours/ns, 85.376 timesteps/s, 4.705 Matom-step/s
99.9% CPU use with 32 MPI tasks x 1 OpenMP threads

MPI task timing breakdown:
Section |  min time  |  avg time  |  max time  |%varavg| %total
---------------------------------------------------------------
Pair    | 3.3984     | 225.84     | 538.37     |1182.5 | 38.56
Bond    | 0.0022566  | 0.0054062  | 0.0097864  |   2.7 |  0.00
Neigh   | 0.017226   | 1.1276     | 2.8306     |  88.3 |  0.19
Comm    | 18.316     | 329.24     | 547.9      | 955.9 | 56.22
Output  | 1.452      | 3.4138     | 5.4181     |  63.1 |  0.58
Modify  | 7.7397     | 22.953     | 48.836     | 204.5 |  3.92
Other   |            | 3.061      |            |       |  0.52

Nlocal:           1722 ave        3944 max          49 min
Histogram: 7 5 0 8 0 0 4 0 4 4
Nghost:        4322.94 ave        7764 max        1238 min
Histogram: 4 4 0 4 8 0 6 2 0 4
Neighs:         309967 ave      756867 max        3901 min
Histogram: 8 4 4 4 0 2 1 3 2 4

Total # of neighbors = 9918950
Ave neighs/atom = 180.00417
Ave special neighs/atom = 0
Neighbor list builds = 131
Dangerous builds = 0

dump_modify dummp every 1
minimize 1.0e-6 1.0e-6 1000 10000
Generated 0 of 0 mixed pair_coeff terms from geometric mixing rule
Per MPI rank memory allocation (min/avg/max) = 8.719 | 9.967 | 11.73 Mbytes
   Step          Temp          Press          TotEng         Volume           Lx             Ly             Lz      
    171000   5.9039254      0.29176432    -97313.136      2897770.2      122.15672      122.15884      194.18768    
    171015   5.9039254     -95.06613      -97365.153      2897770.2      122.15672      122.15884      194.18768    
Loop time of 0.816941 on 32 procs for 15 steps with 55104 atoms

98.6% CPU use with 32 MPI tasks x 1 OpenMP threads

Minimization stats:
  Stopping criterion = energy tolerance
  Energy initial, next-to-last, final = 
      -97355.187423173   -97407.108266523  -97407.2044017788
  Force two-norm initial, final = 33.341807 1.2901499
  Force max component initial, final = 0.38988274 0.29299351
  Final line search alpha, max atom move = 0.60007284 0.17581745
  Iterations, force evaluations = 15 30

MPI task timing breakdown:
Section |  min time  |  avg time  |  max time  |%varavg| %total
---------------------------------------------------------------
Pair    | 0.0028021  | 0.20652    | 0.56301    |  37.7 | 25.28
Bond    | 1.542e-06  | 3.439e-06  | 6.004e-06  |   0.0 |  0.00
Neigh   | 0          | 0          | 0          |   0.0 |  0.00
Comm    | 0.016088   | 0.37472    | 0.64085    |  28.0 | 45.87
Output  | 0.032737   | 0.089367   | 0.14735    |  11.3 | 10.94
Modify  | 0          | 0          | 0          |   0.0 |  0.00
Other   |            | 0.1463     |            |       | 17.91

Nlocal:           1722 ave        3944 max          50 min
Histogram: 7 5 0 8 0 0 4 0 4 4
Nghost:        4324.84 ave        7763 max        1243 min
Histogram: 4 4 0 4 8 0 6 2 0 4
Neighs:         310111 ave      757211 max        4053 min
Histogram: 8 4 4 4 0 2 1 3 2 4

Total # of neighbors = 9923562
Ave neighs/atom = 180.08787
Ave special neighs/atom = 0
Neighbor list builds = 0
Dangerous builds = 0
Total wall time: 0:32:51
