LAMMPS (10 Sep 2025)
  using 1 OpenMP thread(s) per MPI task
Reading data file ...
  orthogonal box = (-59.009762 -59.010348 0) to (59.010786 59.009027 198.83694)
  4 by 2 by 4 MPI processor grid
  reading atoms ...
  55296 atoms
Finding 1-2 1-3 1-4 neighbors ...
  special bond factors lj:    0        0        0       
  special bond factors coul:  0        0        0       
     0 = max # of 1-2 neighbors
     0 = max # of 1-3 neighbors
     0 = max # of 1-4 neighbors
     1 = max # of special neighbors
  special bonds CPU = 0.003 seconds
  read_data CPU = 0.142 seconds
Generated 0 of 0 mixed pair_coeff terms from geometric mixing rule
Neighbor list info ...
  update: every = 1 steps, delay = 0 steps, check = yes
  max neighbors/atom: 2000, page size: 100000
  master list distance cutoff = 3.5
  ghost atom cutoff = 3.5
  binsize = 1.75, bins = 68 68 114
  1 neighbor lists, perpetual/occasional/extra = 1 0 0
  (1) pair soft, perpetual
      attributes: half, newton on
      pair build: half/bin/newton
      stencil: half/bin/3d
      bin: standard
Setting up cg style minimization ...
  Unit style    : metal
  Current step  : 0
Per MPI rank memory allocation (min/avg/max) = 7.467 | 7.529 | 7.576 Mbytes
   Step          Temp          E_pair         E_mol          TotEng         Press     
         0   0              11187.31       0              11187.31       14157.382    
        31   0              3.0193503e-09  0              3.0193503e-09  0.00094386858
Loop time of 0.0255846 on 32 procs for 31 steps with 55296 atoms

97.0% CPU use with 32 MPI tasks x 1 OpenMP threads

Minimization stats:
  Stopping criterion = linesearch alpha is zero
  Energy initial, next-to-last, final = 
      11187.3099282999 3.0193503253173e-09 3.0193503253173e-09
  Force two-norm initial, final = 924.84621 0.00072785571
  Force max component initial, final = 28.268239 0.0001079594
  Final line search alpha, max atom move = 0.015625 1.6868656e-06
  Iterations, force evaluations = 31 79

MPI task timing breakdown:
Section |  min time  |  avg time  |  max time  |%varavg| %total
---------------------------------------------------------------
Pair    | 0.00057067 | 0.0039277  | 0.0085349  |   4.3 | 15.35
Bond    | 2.962e-06  | 4.247e-06  | 5.658e-06  |   0.0 |  0.02
Neigh   | 0          | 0          | 0          |   0.0 |  0.00
Comm    | 0.0083977  | 0.012846   | 0.016048   |   2.0 | 50.21
Output  | 0          | 0          | 0          |   0.0 |  0.00
Modify  | 0          | 0          | 0          |   0.0 |  0.00
Other   |            | 0.008806   |            |       | 34.42

Nlocal:           1728 ave        3655 max         194 min
Histogram: 8 4 4 0 0 4 4 0 0 8
Nghost:        1005.25 ave        1670 max         353 min
Histogram: 8 6 2 0 0 0 1 1 7 7
Neighs:        9760.78 ave       20612 max        1178 min
Histogram: 8 3 5 0 0 4 4 0 0 8

Total # of neighbors = 312345
Ave neighs/atom = 5.6486003
Ave special neighs/atom = 0
Neighbor list builds = 0
Dangerous builds = 0
Generated 0 of 0 mixed pair_coeff terms from geometric mixing rule
Setting up cg style minimization ...
  Unit style    : metal
  Current step  : 31
Per MPI rank memory allocation (min/avg/max) = 7.467 | 7.529 | 7.576 Mbytes
   Step          Temp          E_pair         E_mol          TotEng         Press     
        31   0              1.5096752e-08  0              1.5096752e-08  0.0047193429 
        32   0              1.5096752e-08  0              1.5096752e-08  0.0047193429 
Loop time of 0.000842425 on 32 procs for 1 steps with 55296 atoms

96.8% CPU use with 32 MPI tasks x 1 OpenMP threads

Minimization stats:
  Stopping criterion = quadratic factors are zero
  Energy initial, next-to-last, final = 
    1.50967516265865e-08 1.50967516265865e-08 1.50967516265865e-08
  Force two-norm initial, final = 0.0036392786 0.0036392786
  Force max component initial, final = 0.00053979699 0.00053979699
  Final line search alpha, max atom move = 1 0.00053979699
  Iterations, force evaluations = 1 2

MPI task timing breakdown:
Section |  min time  |  avg time  |  max time  |%varavg| %total
---------------------------------------------------------------
Pair    | 1.5939e-05 | 0.00013668 | 0.00029538 |   0.0 | 16.22
Bond    | 1.25e-07   | 1.8822e-07 | 2.85e-07   |   0.0 |  0.02
Neigh   | 0          | 0          | 0          |   0.0 |  0.00
Comm    | 0.00024377 | 0.00040237 | 0.00050931 |   0.0 | 47.76
Output  | 0          | 0          | 0          |   0.0 |  0.00
Modify  | 0          | 0          | 0          |   0.0 |  0.00
Other   |            | 0.0003032  |            |       | 35.99

Nlocal:           1728 ave        3655 max         193 min
Histogram: 8 4 4 0 0 4 4 0 0 8
Nghost:        1004.53 ave        1662 max         351 min
Histogram: 8 6 2 0 0 0 1 1 7 7
Neighs:           9710 ave       20470 max        1144 min
Histogram: 8 3 5 0 0 4 4 0 0 8

Total # of neighbors = 310720
Ave neighs/atom = 5.619213
Ave special neighs/atom = 0
Neighbor list builds = 0
Dangerous builds = 0
Generated 0 of 0 mixed pair_coeff terms from geometric mixing rule
Setting up cg style minimization ...
  Unit style    : metal
  Current step  : 32
Per MPI rank memory allocation (min/avg/max) = 7.467 | 7.529 | 7.576 Mbytes
   Step          Temp          E_pair         E_mol          TotEng         Press     
        32   0              4.5290255e-08  0              4.5290255e-08  0.014158029  
        33   0              4.5290255e-08  0              4.5290255e-08  0.014158029  
Loop time of 0.00107609 on 32 procs for 1 steps with 55296 atoms

98.1% CPU use with 32 MPI tasks x 1 OpenMP threads

Minimization stats:
  Stopping criterion = quadratic factors are zero
  Energy initial, next-to-last, final = 
    4.52902548797596e-08 4.52902548797596e-08 4.52902548797596e-08
  Force two-norm initial, final = 0.010917836 0.010917836
  Force max component initial, final = 0.001619391 0.001619391
  Final line search alpha, max atom move = 0.5 0.00080969548
  Iterations, force evaluations = 1 3

MPI task timing breakdown:
Section |  min time  |  avg time  |  max time  |%varavg| %total
---------------------------------------------------------------
Pair    | 1.993e-05  | 0.00017785 | 0.00038603 |   0.0 | 16.53
Bond    | 1.66e-07   | 2.7675e-07 | 3.69e-07   |   0.0 |  0.03
Neigh   | 0          | 0          | 0          |   0.0 |  0.00
Comm    | 0.00034415 | 0.00053691 | 0.00070112 |   0.0 | 49.89
Output  | 0          | 0          | 0          |   0.0 |  0.00
Modify  | 0          | 0          | 0          |   0.0 |  0.00
Other   |            | 0.0003611  |            |       | 33.55

Nlocal:           1728 ave        3655 max         193 min
Histogram: 8 4 4 0 0 4 4 0 0 8
Nghost:        1004.53 ave        1662 max         351 min
Histogram: 8 6 2 0 0 0 1 1 7 7
Neighs:           9710 ave       20470 max        1144 min
Histogram: 8 3 5 0 0 4 4 0 0 8

Total # of neighbors = 310720
Ave neighs/atom = 5.619213
Ave special neighs/atom = 0
Neighbor list builds = 0
Dangerous builds = 0
55296 atoms in group ext
Generated 0 of 0 mixed pair_coeff terms from geometric mixing rule
Neighbor list info ...
  update: every = 1 steps, delay = 0 steps, check = yes
  max neighbors/atom: 2000, page size: 100000
  master list distance cutoff = 12
  ghost atom cutoff = 12
  binsize = 6, bins = 20 20 34
  1 neighbor lists, perpetual/occasional/extra = 1 0 0
  (1) pair lj/cut, perpetual
      attributes: half, newton on
      pair build: half/bin/newton
      stencil: half/bin/3d
      bin: standard
Setting up cg style minimization ...
  Unit style    : metal
  Current step  : 33
Per MPI rank memory allocation (min/avg/max) = 7.496 | 8.861 | 10.82 Mbytes
   Step          Temp          E_pair         E_mol          TotEng         Press     
        33   0              8140414.7      0              8140414.7      19618354     
      1033   0             -93901.076      0             -93901.076      1886.9808    
Loop time of 24.1764 on 32 procs for 1000 steps with 55296 atoms

98.6% CPU use with 32 MPI tasks x 1 OpenMP threads

Minimization stats:
  Stopping criterion = max iterations
  Energy initial, next-to-last, final = 
      8140414.66775281  -93899.0505262974  -93901.0760146731
  Force two-norm initial, final = 495665.71 4.5735885
  Force max component initial, final = 9694.1971 1.295896
  Final line search alpha, max atom move = 0.039218246 0.050822768
  Iterations, force evaluations = 1000 1000

MPI task timing breakdown:
Section |  min time  |  avg time  |  max time  |%varavg| %total
---------------------------------------------------------------
Pair    | 0.64075    | 6.3054     | 13.411     | 188.6 | 26.08
Bond    | 6.3916e-05 | 0.00010339 | 0.00015594 |   0.0 |  0.00
Neigh   | 0.020611   | 0.21628    | 0.46935    |  35.8 |  0.89
Comm    | 0.23155    | 7.5318     | 13.295     | 177.4 | 31.15
Output  | 2.1522     | 5.819      | 9.5541     |  90.4 | 24.07
Modify  | 0          | 0          | 0          |   0.0 |  0.00
Other   |            | 4.304      |            |       | 17.80

Nlocal:           1728 ave        3390 max         282 min
Histogram: 8 0 8 0 0 0 8 0 0 8
Nghost:        4702.91 ave        6723 max        2632 min
Histogram: 16 0 0 0 0 0 0 0 0 16
Neighs:         306645 ave      640109 max       31445 min
Histogram: 8 3 5 0 0 2 6 0 0 8

Total # of neighbors = 9812636
Ave neighs/atom = 177.45652
Ave special neighs/atom = 0
Neighbor list builds = 24
Dangerous builds = 0
Generated 0 of 0 mixed pair_coeff terms from geometric mixing rule
Setting up Verlet run ...
  Unit style    : metal
  Current step  : 1033
  Time step     : 0.0005
Per MPI rank memory allocation (min/avg/max) = 7.608 | 8.985 | 10.95 Mbytes
   Step          Temp          Press          TotEng         Volume           Lx             Ly             Lz      
      1033   300            2713.9376     -91756.844      2769542.3      118.02055      118.01937      198.83694    
      1100   171.33482      5287.4421     -91724.437      2769542.3      118.02055      118.01937      198.83694    
      1200   137.88748      6150.6243     -91618.631      2769542.3      118.02055      118.01937      198.83694    
      1300   161.50577      5796.6062     -91451.836      2769542.3      118.02055      118.01937      198.83694    
      1400   190.98818      5399.5675     -91253.938      2769542.3      118.02055      118.01937      198.83694    
      1500   204.64001      5408.5408     -91030.5        2769542.3      118.02055      118.01937      198.83694    
      1600   225.6978       5326.3103     -90785.762      2769542.3      118.02055      118.01937      198.83694    
      1700   246.80224      5242.4855     -90522.469      2769542.3      118.02055      118.01937      198.83694    
      1800   267.95412      5147.3705     -90245.05       2769542.3      118.02055      118.01937      198.83694    
      1900   290.73454      4989.8331     -89958.281      2769542.3      118.02055      118.01937      198.83694    
      2000   314.93395      4761.9458     -89668.987      2769542.3      118.02055      118.01937      198.83694    
      2100   335.49216      4546.1692     -89385.266      2769542.3      118.02055      118.01937      198.83694    
      2200   354.74301      4286.1054     -89114.318      2769542.3      118.02055      118.01937      198.83694    
      2300   375.6889       3892.2073     -88866.044      2769542.3      118.02055      118.01937      198.83694    
      2400   388.29857      3518.5915     -88652.509      2769542.3      118.02055      118.01937      198.83694    
      2500   402.27562      3004.7253     -88473.035      2769542.3      118.02055      118.01937      198.83694    
      2600   411.1613       2411.693      -88340.831      2769542.3      118.02055      118.01937      198.83694    
      2700   415.4          1785.557      -88244.446      2769542.3      118.02055      118.01937      198.83694    
      2800   422.81997      1138.9401     -88146.625      2769542.3      118.02055      118.01937      198.83694    
      2900   428.22774      585.71639     -88042.365      2769542.3      118.02055      118.01937      198.83694    
      3000   437.09551      40.652947     -87926.03       2769542.3      118.02055      118.01937      198.83694    
      3100   441.90837     -407.14108     -87813.196      2769542.3      118.02055      118.01937      198.83694    
      3200   451.12266     -877.57437     -87689.943      2769542.3      118.02055      118.01937      198.83694    
      3300   456.60637     -1269.8173     -87573.049      2769542.3      118.02055      118.01937      198.83694    
      3400   463.45029     -1648.2612     -87449.677      2769542.3      118.02055      118.01937      198.83694    
      3500   471.21207     -1994.5368     -87319.556      2769542.3      118.02055      118.01937      198.83694    
      3600   478.03177     -2297.4816     -87190.452      2769542.3      118.02055      118.01937      198.83694    
      3700   483.88581     -2570.0014     -87059.925      2769542.3      118.02055      118.01937      198.83694    
      3800   491.82562     -2848.9321     -86922.207      2769542.3      118.02055      118.01937      198.83694    
      3900   498.97039     -3085.2714     -86783.425      2769542.3      118.02055      118.01937      198.83694    
      4000   506.26354     -3312.3959     -86646.414      2769542.3      118.02055      118.01937      198.83694    
      4100   514.73921     -3546.7315     -86515.603      2769542.3      118.02055      118.01937      198.83694    
      4200   518.26522     -3690.1152     -86394.672      2769542.3      118.02055      118.01937      198.83694    
      4300   528.2518      -3911.7476     -86261.008      2769542.3      118.02055      118.01937      198.83694    
      4400   532.5886      -3998.9413     -86129.296      2769542.3      118.02055      118.01937      198.83694    
      4500   542.62711     -4111.3134     -85987.624      2769542.3      118.02055      118.01937      198.83694    
      4600   549.50884     -4183.5435     -85860.805      2769542.3      118.02055      118.01937      198.83694    
      4700   553.97175     -4199.9048     -85739.491      2769542.3      118.02055      118.01937      198.83694    
      4800   564.02132     -4277.0355     -85609.103      2769542.3      118.02055      118.01937      198.83694    
      4900   569.7675      -4301.2253     -85491.084      2769542.3      118.02055      118.01937      198.83694    
      5000   578.36402     -4366.5456     -85378.022      2769542.3      118.02055      118.01937      198.83694    
      5100   580.11267     -4264.0902     -85272.244      2769542.3      118.02055      118.01937      198.83694    
      5200   591.86892     -4226.6831     -85131.075      2769542.3      118.02055      118.01937      198.83694    
      5300   602.57921     -4222.1884     -85010.805      2769542.3      118.02055      118.01937      198.83694    
      5400   603.29184     -4126.3917     -84938.43       2769542.3      118.02055      118.01937      198.83694    
      5500   611.02973     -4086.3554     -84845.369      2769542.3      118.02055      118.01937      198.83694    
      5600   620.91073     -4038.4752     -84737.997      2769542.3      118.02055      118.01937      198.83694    
      5700   624.12761     -3869.6593     -84645.967      2769542.3      118.02055      118.01937      198.83694    
      5800   638.00815     -3862.4046     -84545.158      2769542.3      118.02055      118.01937      198.83694    
      5900   637.52287     -3633.0119     -84478.865      2769542.3      118.02055      118.01937      198.83694    
      6000   647.40643     -3531.0181     -84389.293      2769542.3      118.02055      118.01937      198.83694    
      6100   656.42653     -3406.7385     -84298.559      2769542.3      118.02055      118.01937      198.83694    
      6200   660.93374     -3238.5516     -84225.726      2769542.3      118.02055      118.01937      198.83694    
      6300   664.60195     -2997.5702     -84143.983      2769542.3      118.02055      118.01937      198.83694    
      6400   674.99185     -2730.6303     -84021.614      2769542.3      118.02055      118.01937      198.83694    
      6500   685.69857     -2468.134      -83897.159      2769542.3      118.02055      118.01937      198.83694    
      6600   692.47807     -2238.3748     -83821.314      2769542.3      118.02055      118.01937      198.83694    
      6700   695.99245     -1996.3461     -83782.38       2769542.3      118.02055      118.01937      198.83694    
      6800   699.07258     -1718.752      -83730.496      2769542.3      118.02055      118.01937      198.83694    
      6900   708.69561     -1409.6555     -83623.787      2769542.3      118.02055      118.01937      198.83694    
      7000   720.6648      -1109.4329     -83508.301      2769542.3      118.02055      118.01937      198.83694    
      7100   724.89236     -744.27598     -83425.004      2769542.3      118.02055      118.01937      198.83694    
      7200   728.61572     -344.75609     -83343.687      2769542.3      118.02055      118.01937      198.83694    
      7300   739.11058      1.4036825     -83235.31       2769542.3      118.02055      118.01937      198.83694    
      7400   750.59482      274.01707     -83136.989      2769542.3      118.02055      118.01937      198.83694    
      7500   751.53242      565.81378     -83097.072      2769542.3      118.02055      118.01937      198.83694    
      7600   758.8279       754.71916     -83053.071      2769542.3      118.02055      118.01937      198.83694    
      7700   764.02668      1068.6432     -82978.24       2769542.3      118.02055      118.01937      198.83694    
      7800   772.16915      1405.0439     -82877.451      2769542.3      118.02055      118.01937      198.83694    
      7900   784.3696       1676.0687     -82773.385      2769542.3      118.02055      118.01937      198.83694    
      8000   786.71031      2021.3854     -82703.773      2769542.3      118.02055      118.01937      198.83694    
      8100   793.15934      2270.7486     -82630.29       2769542.3      118.02055      118.01937      198.83694    
      8200   801.9276       2483.8025     -82534.812      2769542.3      118.02055      118.01937      198.83694    
      8300   810.57535      2609.5746     -82452.822      2769542.3      118.02055      118.01937      198.83694    
      8400   810.50309      2865.9348     -82382.792      2769542.3      118.02055      118.01937      198.83694    
      8500   824.9824       2952.16       -82264.3        2769542.3      118.02055      118.01937      198.83694    
      8600   831.06612      3087.4742     -82172.751      2769542.3      118.02055      118.01937      198.83694    
      8700   832.14606      3253.0667     -82091.717      2769542.3      118.02055      118.01937      198.83694    
      8800   844.91765      3274.0939     -81962.707      2769542.3      118.02055      118.01937      198.83694    
      8900   853.24205      3232.7168     -81861.973      2769542.3      118.02055      118.01937      198.83694    
      9000   855.00675      3164.5284     -81791.414      2769542.3      118.02055      118.01937      198.83694    
      9100   861.26156      3086.57       -81682.28       2769542.3      118.02055      118.01937      198.83694    
      9200   872.37156      2985.0187     -81544.162      2769542.3      118.02055      118.01937      198.83694    
      9300   884.13479      2777.0726     -81427.341      2769542.3      118.02055      118.01937      198.83694    
      9400   882.61801      2640.5774     -81365.835      2769542.3      118.02055      118.01937      198.83694    
      9500   885.03519      2491.8191     -81268.054      2769542.3      118.02055      118.01937      198.83694    
      9600   903.20208      2252.7495     -81095.06       2769542.3      118.02055      118.01937      198.83694    
      9700   906.97198      2152.0813     -80959.102      2769542.3      118.02055      118.01937      198.83694    
      9800   914.23306      1879.0446     -80849.504      2769542.3      118.02055      118.01937      198.83694    
      9900   916.13744      1704.4954     -80743.771      2769542.3      118.02055      118.01937      198.83694    
     10000   926.74973      1474.4333     -80597.191      2769542.3      118.02055      118.01937      198.83694    
     10100   933.92302      1328.2998     -80445.802      2769542.3      118.02055      118.01937      198.83694    
     10200   943.47082      1132.0985     -80299.477      2769542.3      118.02055      118.01937      198.83694    
     10300   946.46551      968.80156     -80175.226      2769542.3      118.02055      118.01937      198.83694    
     10400   954.72126      730.51677     -80037.613      2769542.3      118.02055      118.01937      198.83694    
     10500   965.05556      479.53944     -79899.39       2769542.3      118.02055      118.01937      198.83694    
     10600   967.30017      312.71408     -79781.004      2769542.3      118.02055      118.01937      198.83694    
     10700   975.30849      86.171394     -79646.012      2769542.3      118.02055      118.01937      198.83694    
     10800   979.19163      19.799345     -79495.758      2769542.3      118.02055      118.01937      198.83694    
     10900   995.15076     -226.32681     -79311.472      2769542.3      118.02055      118.01937      198.83694    
     11000   996.978       -322.07017     -79175.663      2769542.3      118.02055      118.01937      198.83694    
     11033   999.76036     -395.66324     -79136.084      2769542.3      118.02055      118.01937      198.83694    
Loop time of 86.7581 on 32 procs for 10000 steps with 55296 atoms

Performance: 4.979 ns/day, 4.820 hours/ns, 115.263 timesteps/s, 6.374 Matom-step/s
99.9% CPU use with 32 MPI tasks x 1 OpenMP threads

MPI task timing breakdown:
Section |  min time  |  avg time  |  max time  |%varavg| %total
---------------------------------------------------------------
Pair    | 4.6257     | 39.4       | 80.961     | 445.2 | 45.41
Bond    | 0.0004463  | 0.00098921 | 0.0017132  |   0.0 |  0.00
Neigh   | 0.031145   | 0.28029    | 0.5861     |  38.4 |  0.32
Comm    | 2.219      | 43.637     | 77.914     | 421.5 | 50.30
Output  | 0.23994    | 0.60581    | 0.97536    |  27.7 |  0.70
Modify  | 1.0049     | 2.0476     | 4.302      |  49.4 |  2.36
Other   |            | 0.7864     |            |       |  0.91

Nlocal:           1728 ave        3337 max         299 min
Histogram: 8 0 8 0 0 0 8 0 0 8
Nghost:        4667.19 ave        6572 max        2689 min
Histogram: 16 0 0 0 0 0 0 0 0 16
Neighs:         286995 ave      585801 max       32209 min
Histogram: 8 3 5 0 0 2 6 0 0 8

Total # of neighbors = 9183855
Ave neighs/atom = 166.08534
Ave special neighs/atom = 0
Neighbor list builds = 34
Dangerous builds = 0
Generated 0 of 0 mixed pair_coeff terms from geometric mixing rule
Setting up Verlet run ...
  Unit style    : metal
  Current step  : 11033
  Time step     : 0.001
Per MPI rank memory allocation (min/avg/max) = 7.609 | 8.986 | 10.95 Mbytes
   Step          Temp          Press          TotEng         Volume           Lx             Ly             Lz      
     11033   1000          -395.00266     -79134.371      2769542.3      118.02055      118.01937      198.83694    
     11100   985.11046     -38.147153     -79122.601      2769542.3      118.02055      118.01937      198.83694    
     11200   994.96877      53.476402     -79044.768      2769542.3      118.02055      118.01937      198.83694    
     11300   1002.0637      161.91649     -78990.859      2769542.3      118.02055      118.01937      198.83694    
     11400   1007.2411      277.57124     -78972.868      2769542.3      118.02055      118.01937      198.83694    
     11500   1001.3051      452.76997     -79023.726      2769542.3      118.02055      118.01937      198.83694    
     11600   1000.912       432.12454     -79073.317      2769542.3      118.02055      118.01937      198.83694    
     11700   995.98152      535.61345     -79103.585      2769542.3      118.02055      118.01937      198.83694    
     11800   1005.2364      539.33694     -79106.734      2769542.3      118.02055      118.01937      198.83694    
     11900   999.60486      574.85429     -79171.961      2769542.3      118.02055      118.01937      198.83694    
     12000   999.51749      608.10905     -79185.628      2769542.3      118.02055      118.01937      198.83694    
     12100   1002.7846      561.81077     -79172.82       2769542.3      118.02055      118.01937      198.83694    
     12200   1001.6981      502.13543     -79166.835      2769542.3      118.02055      118.01937      198.83694    
     12300   994.01544      530.87236     -79182.341      2769542.3      118.02055      118.01937      198.83694    
     12400   1002.0684      318.02573     -79194.324      2769542.3      118.02055      118.01937      198.83694    
     12500   998.60796      320.82673     -79219.528      2769542.3      118.02055      118.01937      198.83694    
     12600   996.71169      254.81201     -79248.417      2769542.3      118.02055      118.01937      198.83694    
     12700   1003.0607      170.73315     -79225.143      2769542.3      118.02055      118.01937      198.83694    
     12800   998.55193      354.31002     -79178.759      2769542.3      118.02055      118.01937      198.83694    
     12900   1004.5227      187.18912     -79158.87       2769542.3      118.02055      118.01937      198.83694    
     13000   1003.0271      36.494141     -79173.359      2769542.3      118.02055      118.01937      198.83694    
     13100   1000.2469     -32.400432     -79197.281      2769542.3      118.02055      118.01937      198.83694    
     13200   998.25289      5.5584141     -79202.171      2769542.3      118.02055      118.01937      198.83694    
     13300   994.33764      35.602737     -79203.82       2769542.3      118.02055      118.01937      198.83694    
     13400   1002.6881     -69.711283     -79177.201      2769542.3      118.02055      118.01937      198.83694    
     13500   1005.7532     -54.575118     -79139.338      2769542.3      118.02055      118.01937      198.83694    
     13600   1006.3447     -93.199449     -79138.636      2769542.3      118.02055      118.01937      198.83694    
     13700   998.60832     -119.45276     -79203.08       2769542.3      118.02055      118.01937      198.83694    
     13800   996.91557     -122.99122     -79225.912      2769542.3      118.02055      118.01937      198.83694    
     13900   1002.492      -218.58847     -79241.863      2769542.3      118.02055      118.01937      198.83694    
     14000   995.41173     -190.93929     -79292.244      2769542.3      118.02055      118.01937      198.83694    
     14100   998.33889     -254.72893     -79297.704      2769542.3      118.02055      118.01937      198.83694    
     14200   997.01394     -186.25351     -79285.389      2769542.3      118.02055      118.01937      198.83694    
     14300   1000.0375     -123.63936     -79249.034      2769542.3      118.02055      118.01937      198.83694    
     14400   1004.4838     -25.175124     -79218.277      2769542.3      118.02055      118.01937      198.83694    
     14500   1003.7904      43.656799     -79239.929      2769542.3      118.02055      118.01937      198.83694    
     14600   1000.9034     -2.7584341     -79295.062      2769542.3      118.02055      118.01937      198.83694    
     14700   1003.6751     -22.10138      -79322.74       2769542.3      118.02055      118.01937      198.83694    
     14800   999.45269      125.51847     -79361.993      2769542.3      118.02055      118.01937      198.83694    
     14900   998.95617      234.60559     -79391.921      2769542.3      118.02055      118.01937      198.83694    
     15000   1002.5588      332.86461     -79402.216      2769542.3      118.02055      118.01937      198.83694    
     15100   1003.0065      432.88547     -79423.517      2769542.3      118.02055      118.01937      198.83694    
     15200   1002.2809      457.73437     -79450.734      2769542.3      118.02055      118.01937      198.83694    
     15300   1001.3132      550.89427     -79470.339      2769542.3      118.02055      118.01937      198.83694    
     15400   1001.6837      637.05386     -79485.155      2769542.3      118.02055      118.01937      198.83694    
     15500   1001.4548      741.18642     -79498.376      2769542.3      118.02055      118.01937      198.83694    
     15600   996.41568      759.93347     -79567.774      2769542.3      118.02055      118.01937      198.83694    
     15700   997.51021      776.74885     -79585.49       2769542.3      118.02055      118.01937      198.83694    
     15800   999.46662      844.9756      -79566.779      2769542.3      118.02055      118.01937      198.83694    
     15900   1004.128       943.46702     -79539.44       2769542.3      118.02055      118.01937      198.83694    
     16000   1002.8891      954.15484     -79561.844      2769542.3      118.02055      118.01937      198.83694    
     16100   999.38818      849.53425     -79627.099      2769542.3      118.02055      118.01937      198.83694    
     16200   996.49094      867.26896     -79647.217      2769542.3      118.02055      118.01937      198.83694    
     16300   1001.6844      718.7458      -79638.074      2769542.3      118.02055      118.01937      198.83694    
     16400   997.57737      834.73827     -79615.699      2769542.3      118.02055      118.01937      198.83694    
     16500   1004.3663      788.95663     -79560.109      2769542.3      118.02055      118.01937      198.83694    
     16600   1004.1507      792.64131     -79561.711      2769542.3      118.02055      118.01937      198.83694    
     16700   999.76852      669.82154     -79606.506      2769542.3      118.02055      118.01937      198.83694    
     16800   997.66544      610.01297     -79617.712      2769542.3      118.02055      118.01937      198.83694    
     16900   999.65225      471.20584     -79611.998      2769542.3      118.02055      118.01937      198.83694    
     17000   1003.3699      367.86416     -79612.881      2769542.3      118.02055      118.01937      198.83694    
     17100   995.90712      399.43573     -79644.87       2769542.3      118.02055      118.01937      198.83694    
     17200   1002.6784      167.36317     -79683.337      2769542.3      118.02055      118.01937      198.83694    
     17300   997.5264       190.32751     -79711.438      2769542.3      118.02055      118.01937      198.83694    
     17400   1000.9146      252.48869     -79686.177      2769542.3      118.02055      118.01937      198.83694    
     17500   1006.1154      249.75951     -79648.216      2769542.3      118.02055      118.01937      198.83694    
     17600   1002.4695      509.65629     -79593.72       2769542.3      118.02055      118.01937      198.83694    
     17700   1006.9698      482.03822     -79563.358      2769542.3      118.02055      118.01937      198.83694    
     17800   1004.8015      273.08049     -79618.577      2769542.3      118.02055      118.01937      198.83694    
     17900   1001.8634      74.322652     -79664.242      2769542.3      118.02055      118.01937      198.83694    
     18000   996.15114     -10.094079     -79692.849      2769542.3      118.02055      118.01937      198.83694    
     18100   999.12592     -134.77338     -79689.453      2769542.3      118.02055      118.01937      198.83694    
     18200   997.63147     -70.006404     -79684.921      2769542.3      118.02055      118.01937      198.83694    
     18300   1000.7541     -17.361072     -79649.829      2769542.3      118.02055      118.01937      198.83694    
     18400   1005.8934     -53.497622     -79623.328      2769542.3      118.02055      118.01937      198.83694    
     18500   1003.5887     -162.40113     -79678.995      2769542.3      118.02055      118.01937      198.83694    
     18600   997.07778     -119.40142     -79714.88       2769542.3      118.02055      118.01937      198.83694    
     18700   1000.142      -217.02515     -79722.206      2769542.3      118.02055      118.01937      198.83694    
     18800   999.37445     -210.08868     -79719.469      2769542.3      118.02055      118.01937      198.83694    
     18900   1002.4492     -85.931999     -79683.721      2769542.3      118.02055      118.01937      198.83694    
     19000   1002.7016      28.856918     -79677.942      2769542.3      118.02055      118.01937      198.83694    
     19100   998.60699      6.418013      -79735.502      2769542.3      118.02055      118.01937      198.83694    
     19200   999.31367     -43.407707     -79772.012      2769542.3      118.02055      118.01937      198.83694    
     19300   998.57577     -1.6289909     -79784.957      2769542.3      118.02055      118.01937      198.83694    
     19400   1000.3469      3.922503      -79793.122      2769542.3      118.02055      118.01937      198.83694    
     19500   994.75811     -32.91181      -79843.337      2769542.3      118.02055      118.01937      198.83694    
     19600   994.31699      5.8951882     -79867.387      2769542.3      118.02055      118.01937      198.83694    
     19700   1002.0296      92.08461      -79821.152      2769542.3      118.02055      118.01937      198.83694    
     19800   1000.7454      324.69744     -79801.397      2769542.3      118.02055      118.01937      198.83694    
     19900   1004.0768      388.03421     -79808.908      2769542.3      118.02055      118.01937      198.83694    
     20000   1000.0747      446.67796     -79826.144      2769542.3      118.02055      118.01937      198.83694    
     20100   1006.8773      295.7757      -79840.448      2769542.3      118.02055      118.01937      198.83694    
     20200   1002.2013      254.43765     -79893.7        2769542.3      118.02055      118.01937      198.83694    
     20300   998.6313       339.63082     -79912.195      2769542.3      118.02055      118.01937      198.83694    
     20400   995.18059      390.89495     -79930.143      2769542.3      118.02055      118.01937      198.83694    
     20500   997.88714      279.01136     -79935.995      2769542.3      118.02055      118.01937      198.83694    
     20600   998.39515      332.39327     -79946.357      2769542.3      118.02055      118.01937      198.83694    
     20700   994.78843      437.33901     -79973.909      2769542.3      118.02055      118.01937      198.83694    
     20800   1002.3204      314.03822     -79963.349      2769542.3      118.02055      118.01937      198.83694    
     20900   999.17507      454.37661     -79959.947      2769542.3      118.02055      118.01937      198.83694    
     21000   1000.6033      344.95121     -79969.327      2769542.3      118.02055      118.01937      198.83694    
     21100   1000.9092      202.05554     -80005.577      2769542.3      118.02055      118.01937      198.83694    
     21200   1000.2016      187.47119     -80022.454      2769542.3      118.02055      118.01937      198.83694    
     21300   998.85966      292.65104     -79992.332      2769542.3      118.02055      118.01937      198.83694    
     21400   1004.4748      339.63992     -79940.542      2769542.3      118.02055      118.01937      198.83694    
     21500   1005.4295      270.18617     -79952.384      2769542.3      118.02055      118.01937      198.83694    
     21600   1000.5811      167.96493     -79999.287      2769542.3      118.02055      118.01937      198.83694    
     21700   1001.1339      92.676397     -80010.889      2769542.3      118.02055      118.01937      198.83694    
     21800   992.60789      149.66935     -80022.631      2769542.3      118.02055      118.01937      198.83694    
     21900   996.25798      115.87961     -79992.888      2769542.3      118.02055      118.01937      198.83694    
     22000   1003.6651      71.68013      -79939.698      2769542.3      118.02055      118.01937      198.83694    
     22100   1004.8179      30.30716      -79939.912      2769542.3      118.02055      118.01937      198.83694    
     22200   998.745       -46.945451     -79972.773      2769542.3      118.02055      118.01937      198.83694    
     22300   1000.2954     -186.47851     -79983.701      2769542.3      118.02055      118.01937      198.83694    
     22400   1001.4932     -361.46095     -79996.607      2769542.3      118.02055      118.01937      198.83694    
     22500   996.23175     -465.80083     -80058.341      2769542.3      118.02055      118.01937      198.83694    
     22600   995.53698     -413.59836     -80054.766      2769542.3      118.02055      118.01937      198.83694    
     22700   1000.3083     -302.00373     -80016.108      2769542.3      118.02055      118.01937      198.83694    
     22800   1000.6548     -176.86007     -80006.668      2769542.3      118.02055      118.01937      198.83694    
     22900   999.97763     -62.378981     -80012.812      2769542.3      118.02055      118.01937      198.83694    
     23000   996.90436     -13.637858     -80040.93       2769542.3      118.02055      118.01937      198.83694    
     23100   999.95895     -248.22392     -80098.662      2769542.3      118.02055      118.01937      198.83694    
     23200   999.3556      -317.53639     -80129.947      2769542.3      118.02055      118.01937      198.83694    
     23300   994.90076     -200.33943     -80129.315      2769542.3      118.02055      118.01937      198.83694    
     23400   998.48198     -85.946605     -80089.441      2769542.3      118.02055      118.01937      198.83694    
     23500   1002.8495     -36.470677     -80065.923      2769542.3      118.02055      118.01937      198.83694    
     23600   998.46624      86.492957     -80084.588      2769542.3      118.02055      118.01937      198.83694    
     23700   1002.3423     -22.690029     -80096.342      2769542.3      118.02055      118.01937      198.83694    
     23800   1005.1067     -88.968823     -80123.597      2769542.3      118.02055      118.01937      198.83694    
     23900   995.83899      5.7959188     -80180.876      2769542.3      118.02055      118.01937      198.83694    
     24000   1000.1181     -27.756048     -80189.262      2769542.3      118.02055      118.01937      198.83694    
     24100   1002.4615      0.030254681   -80180.708      2769542.3      118.02055      118.01937      198.83694    
     24200   998.2          181.72946     -80183.567      2769542.3      118.02055      118.01937      198.83694    
     24300   998.42507      189.01285     -80202.673      2769542.3      118.02055      118.01937      198.83694    
     24400   993.14206      177.32111     -80262.46       2769542.3      118.02055      118.01937      198.83694    
     24500   999.18188      134.45711     -80246.131      2769542.3      118.02055      118.01937      198.83694    
     24600   1001.8868      211.08901     -80225.677      2769542.3      118.02055      118.01937      198.83694    
     24700   999.1595       149.06804     -80273.574      2769542.3      118.02055      118.01937      198.83694    
     24800   995.84974      87.066096     -80316.773      2769542.3      118.02055      118.01937      198.83694    
     24900   995.88567      294.89717     -80285.5        2769542.3      118.02055      118.01937      198.83694    
     25000   1006.794       280.95359     -80240.666      2769542.3      118.02055      118.01937      198.83694    
     25100   1003.2524      390.31451     -80264.901      2769542.3      118.02055      118.01937      198.83694    
     25200   1001.2411      296.73909     -80298.6        2769542.3      118.02055      118.01937      198.83694    
     25300   1001.896       254.34616     -80317.155      2769542.3      118.02055      118.01937      198.83694    
     25400   997.90314      346.7193      -80334.982      2769542.3      118.02055      118.01937      198.83694    
     25500   1001.255       321.35079     -80339.97       2769542.3      118.02055      118.01937      198.83694    
     25600   996.17971      337.23735     -80346.591      2769542.3      118.02055      118.01937      198.83694    
     25700   1001.8218      173.05637     -80336.942      2769542.3      118.02055      118.01937      198.83694    
     25800   999.88802      150.20212     -80334.674      2769542.3      118.02055      118.01937      198.83694    
     25900   1001.4757      81.74888      -80322.678      2769542.3      118.02055      118.01937      198.83694    
     26000   999.95925      52.197596     -80322.642      2769542.3      118.02055      118.01937      198.83694    
     26100   1000.19       -34.572388     -80325.228      2769542.3      118.02055      118.01937      198.83694    
     26200   999.16274     -89.241599     -80332.533      2769542.3      118.02055      118.01937      198.83694    
     26300   999.40798     -83.114962     -80327.502      2769542.3      118.02055      118.01937      198.83694    
     26400   1004.1407     -7.2759495     -80284.411      2769542.3      118.02055      118.01937      198.83694    
     26500   1003.0333      94.207985     -80273.965      2769542.3      118.02055      118.01937      198.83694    
     26600   999.5855       31.15588      -80333.212      2769542.3      118.02055      118.01937      198.83694    
     26700   1003.2363     -90.686601     -80362.167      2769542.3      118.02055      118.01937      198.83694    
     26800   1001.2012     -142.86913     -80397.435      2769542.3      118.02055      118.01937      198.83694    
     26900   994.3441      -71.959352     -80421.018      2769542.3      118.02055      118.01937      198.83694    
     27000   1003.0952     -172.55        -80400.834      2769542.3      118.02055      118.01937      198.83694    
     27100   1000.7419     -60.027111     -80387.186      2769542.3      118.02055      118.01937      198.83694    
     27200   1011.639      -44.389603     -80328.496      2769542.3      118.02055      118.01937      198.83694    
     27300   1006.5889     -25.829706     -80352.474      2769542.3      118.02055      118.01937      198.83694    
     27400   1001.0633     -64.054959     -80399.714      2769542.3      118.02055      118.01937      198.83694    
     27500   999.34652     -56.619622     -80419.626      2769542.3      118.02055      118.01937      198.83694    
     27600   1000.0965     -24.771058     -80428.97       2769542.3      118.02055      118.01937      198.83694    
     27700   998.85624      107.50412     -80437.46       2769542.3      118.02055      118.01937      198.83694    
     27800   1000.8023      118.39314     -80471.957      2769542.3      118.02055      118.01937      198.83694    
     27900   998.31199      149.41663     -80509.512      2769542.3      118.02055      118.01937      198.83694    
     28000   999.17831      155.91356     -80542.429      2769542.3      118.02055      118.01937      198.83694    
     28100   998.97739      96.325412     -80583.785      2769542.3      118.02055      118.01937      198.83694    
     28200   998.59367      141.6472      -80590.609      2769542.3      118.02055      118.01937      198.83694    
     28300   1002.0619      384.692       -80510.789      2769542.3      118.02055      118.01937      198.83694    
     28400   1000.58        456.85806     -80504.118      2769542.3      118.02055      118.01937      198.83694    
     28500   1001.1179      294.89791     -80539.137      2769542.3      118.02055      118.01937      198.83694    
     28600   998.44596      274.61813     -80563.674      2769542.3      118.02055      118.01937      198.83694    
     28700   1001.206       236.0365      -80554.535      2769542.3      118.02055      118.01937      198.83694    
     28800   1001.4208      159.69705     -80551.297      2769542.3      118.02055      118.01937      198.83694    
     28900   1000.5668      223.81539     -80545.63       2769542.3      118.02055      118.01937      198.83694    
     29000   1002.9751      272.83232     -80540.636      2769542.3      118.02055      118.01937      198.83694    
     29100   1000.3662      257.28583     -80559.04       2769542.3      118.02055      118.01937      198.83694    
     29200   999.20502      110.46096     -80597.539      2769542.3      118.02055      118.01937      198.83694    
     29300   999.98816      21.050525     -80626.115      2769542.3      118.02055      118.01937      198.83694    
     29400   998.7756       78.559261     -80626.704      2769542.3      118.02055      118.01937      198.83694    
     29500   1002.1488      260.11519     -80560.162      2769542.3      118.02055      118.01937      198.83694    
     29600   1006.8674      150.06122     -80550.03       2769542.3      118.02055      118.01937      198.83694    
     29700   1001.5881      40.001815     -80598.145      2769542.3      118.02055      118.01937      198.83694    
     29800   996.51429      81.226305     -80610.176      2769542.3      118.02055      118.01937      198.83694    
     29900   1002.2961     -3.6099375     -80589.093      2769542.3      118.02055      118.01937      198.83694    
     30000   1002.8862     -26.641903     -80570.207      2769542.3      118.02055      118.01937      198.83694    
     30100   1006.6364     -28.818075     -80520.582      2769542.3      118.02055      118.01937      198.83694    
     30200   1008.1538     -81.570562     -80503.619      2769542.3      118.02055      118.01937      198.83694    
     30300   1000.5365     -167.33267     -80567.364      2769542.3      118.02055      118.01937      198.83694    
     30400   999.70421     -210.92408     -80602.575      2769542.3      118.02055      118.01937      198.83694    
     30500   1001.9741     -210.40241     -80595.538      2769542.3      118.02055      118.01937      198.83694    
     30600   1003.9948     -199.08097     -80566.789      2769542.3      118.02055      118.01937      198.83694    
     30700   1003.6399     -57.975607     -80527.348      2769542.3      118.02055      118.01937      198.83694    
     30800   1008.6412     -191.21278     -80508.375      2769542.3      118.02055      118.01937      198.83694    
     30900   1000.268      -315.65453     -80578.41       2769542.3      118.02055      118.01937      198.83694    
     31000   997.7916      -345.043       -80605.126      2769542.3      118.02055      118.01937      198.83694    
     31100   997.49627     -241.49677     -80615.497      2769542.3      118.02055      118.01937      198.83694    
     31200   1005.4888     -213.29423     -80588.538      2769542.3      118.02055      118.01937      198.83694    
     31300   1000.3627     -91.331905     -80591.946      2769542.3      118.02055      118.01937      198.83694    
     31400   994.84903     -113.33132     -80625.973      2769542.3      118.02055      118.01937      198.83694    
     31500   997.81482     -261.97905     -80657.85       2769542.3      118.02055      118.01937      198.83694    
     31600   997.63348     -293.925       -80702.74       2769542.3      118.02055      118.01937      198.83694    
     31700   998.41363     -231.05448     -80696.935      2769542.3      118.02055      118.01937      198.83694    
     31800   1002.6128     -26.202335     -80631.503      2769542.3      118.02055      118.01937      198.83694    
     31900   1000.7221      69.872224     -80620.926      2769542.3      118.02055      118.01937      198.83694    
     32000   1004.1619     -23.259724     -80636.583      2769542.3      118.02055      118.01937      198.83694    
     32100   998.40002     -38.741027     -80675.796      2769542.3      118.02055      118.01937      198.83694    
     32200   1000.4325     -115.35257     -80685.55       2769542.3      118.02055      118.01937      198.83694    
     32300   999.69021     -101.05754     -80694.123      2769542.3      118.02055      118.01937      198.83694    
     32400   999.75657     -134.21822     -80685.512      2769542.3      118.02055      118.01937      198.83694    
     32500   1005.4629     -88.202104     -80628.535      2769542.3      118.02055      118.01937      198.83694    
     32600   1007.7878      24.617123     -80590.587      2769542.3      118.02055      118.01937      198.83694    
     32700   1002.6748      27.588506     -80635.563      2769542.3      118.02055      118.01937      198.83694    
     32800   1001.0109     -109.45912     -80674.419      2769542.3      118.02055      118.01937      198.83694    
     32900   994.26423     -67.7015       -80696.069      2769542.3      118.02055      118.01937      198.83694    
     33000   1001.1351     -110.27649     -80674.152      2769542.3      118.02055      118.01937      198.83694    
     33100   1001.1046     -82.857861     -80657.695      2769542.3      118.02055      118.01937      198.83694    
     33200   1001.8226     -77.257259     -80673.181      2769542.3      118.02055      118.01937      198.83694    
     33300   998.58647     -124.5744      -80726.265      2769542.3      118.02055      118.01937      198.83694    
     33400   994.91759     -129.63194     -80758.546      2769542.3      118.02055      118.01937      198.83694    
     33500   999.8065      -134.36188     -80742.907      2769542.3      118.02055      118.01937      198.83694    
     33600   1003.6703     -51.832349     -80700.819      2769542.3      118.02055      118.01937      198.83694    
     33700   1001.5603      41.346073     -80697.077      2769542.3      118.02055      118.01937      198.83694    
     33800   998.89807     -58.237312     -80744.092      2769542.3      118.02055      118.01937      198.83694    
     33900   1001.6521     -153.26336     -80768.271      2769542.3      118.02055      118.01937      198.83694    
     34000   999.6202      -24.620315     -80764.449      2769542.3      118.02055      118.01937      198.83694    
     34100   1002.8176      30.376506     -80741.289      2769542.3      118.02055      118.01937      198.83694    
     34200   1002.3328      102.51308     -80719.493      2769542.3      118.02055      118.01937      198.83694    
     34300   1004.2461      15.570625     -80709.361      2769542.3      118.02055      118.01937      198.83694    
     34400   1001.3157     -45.497899     -80752.45       2769542.3      118.02055      118.01937      198.83694    
     34500   992.79144     -22.572348     -80799.062      2769542.3      118.02055      118.01937      198.83694    
     34600   999.64445     -120.43107     -80784.112      2769542.3      118.02055      118.01937      198.83694    
     34700   999.30058     -107.25061     -80766.709      2769542.3      118.02055      118.01937      198.83694    
     34800   1004.2874     -11.593599     -80717.083      2769542.3      118.02055      118.01937      198.83694    
     34900   1004.4654      83.443776     -80672.331      2769542.3      118.02055      118.01937      198.83694    
     35000   1003.1239     -78.370649     -80724.526      2769542.3      118.02055      118.01937      198.83694    
     35100   998.63405     -185.00856     -80787.966      2769542.3      118.02055      118.01937      198.83694    
     35200   995.66579     -146.7013      -80814.142      2769542.3      118.02055      118.01937      198.83694    
     35300   999.04111     -140.95787     -80792.533      2769542.3      118.02055      118.01937      198.83694    
     35400   1003.9082     -145.43571     -80753.243      2769542.3      118.02055      118.01937      198.83694    
     35500   1001.1096     -151.54109     -80772.873      2769542.3      118.02055      118.01937      198.83694    
     35600   996.16473     -221.43839     -80812.383      2769542.3      118.02055      118.01937      198.83694    
     35700   996.48741     -238.67512     -80816.396      2769542.3      118.02055      118.01937      198.83694    
     35800   1001.2299     -112.69376     -80750.621      2769542.3      118.02055      118.01937      198.83694    
     35900   1005.7551      14.018724     -80722.951      2769542.3      118.02055      118.01937      198.83694    
     36000   1001.0549      129.42571     -80765.578      2769542.3      118.02055      118.01937      198.83694    
     36100   1002.6923     -13.693303     -80819.709      2769542.3      118.02055      118.01937      198.83694    
     36200   993.52637      123.4162      -80846.553      2769542.3      118.02055      118.01937      198.83694    
     36300   1003.5168      24.947776     -80830.984      2769542.3      118.02055      118.01937      198.83694    
     36400   996.46461      75.153247     -80872.007      2769542.3      118.02055      118.01937      198.83694    
     36500   997.76398      23.317128     -80897.023      2769542.3      118.02055      118.01937      198.83694    
     36600   1005.3352     -16.149637     -80873.563      2769542.3      118.02055      118.01937      198.83694    
     36700   999.82378      175.98217     -80866.189      2769542.3      118.02055      118.01937      198.83694    
     36800   1000.0204      242.09586     -80851.488      2769542.3      118.02055      118.01937      198.83694    
     36900   1002.1687      129.78775     -80869.405      2769542.3      118.02055      118.01937      198.83694    
     37000   995.61957      101.37524     -80908.859      2769542.3      118.02055      118.01937      198.83694    
     37100   1000.897       15.97585      -80916.713      2769542.3      118.02055      118.01937      198.83694    
     37200   997.99819      52.108413     -80932.918      2769542.3      118.02055      118.01937      198.83694    
     37300   998.35946      107.8523      -80908.867      2769542.3      118.02055      118.01937      198.83694    
     37400   1002.2514      100.04017     -80857.07       2769542.3      118.02055      118.01937      198.83694    
     37500   1004.1302     -6.2223186     -80844.79       2769542.3      118.02055      118.01937      198.83694    
     37600   995.23395     -23.401207     -80891.988      2769542.3      118.02055      118.01937      198.83694    
     37700   1004.2238     -290.88867     -80916.004      2769542.3      118.02055      118.01937      198.83694    
     37800   997.93609     -155.41625     -80919.13       2769542.3      118.02055      118.01937      198.83694    
     37900   1000.4033     -112.95113     -80904.687      2769542.3      118.02055      118.01937      198.83694    
     38000   997.39926     -22.266851     -80904.64       2769542.3      118.02055      118.01937      198.83694    
     38100   998.07765     -63.264254     -80898.436      2769542.3      118.02055      118.01937      198.83694    
     38200   1002.6483     -132.40474     -80883.788      2769542.3      118.02055      118.01937      198.83694    
     38300   1000.8903     -67.264013     -80878.964      2769542.3      118.02055      118.01937      198.83694    
     38400   1000.6263     -56.489632     -80882.249      2769542.3      118.02055      118.01937      198.83694    
     38500   995.42192     -110.51337     -80930.283      2769542.3      118.02055      118.01937      198.83694    
     38600   991.70328     -162.69245     -80959.705      2769542.3      118.02055      118.01937      198.83694    
     38700   1000.7108     -368.50054     -80940.196      2769542.3      118.02055      118.01937      198.83694    
     38800   1002.8923     -191.61791     -80870.187      2769542.3      118.02055      118.01937      198.83694    
     38900   1003.5558     -122.26565     -80845.329      2769542.3      118.02055      118.01937      198.83694    
     39000   1003.6902     -212.47893     -80872.036      2769542.3      118.02055      118.01937      198.83694    
     39100   996.43972     -225.01438     -80925.964      2769542.3      118.02055      118.01937      198.83694    
     39200   998.56329     -242.23572     -80938.526      2769542.3      118.02055      118.01937      198.83694    
     39300   1000.4627     -266.19901     -80938.669      2769542.3      118.02055      118.01937      198.83694    
     39400   1000.8174     -269.0695      -80939.568      2769542.3      118.02055      118.01937      198.83694    
     39500   997.77463     -149.2856      -80924.567      2769542.3      118.02055      118.01937      198.83694    
     39600   1006.3681     -132.93205     -80897.438      2769542.3      118.02055      118.01937      198.83694    
     39700   1000.3492     -92.848063     -80936.957      2769542.3      118.02055      118.01937      198.83694    
     39800   995.90424     -152.39716     -80978.62       2769542.3      118.02055      118.01937      198.83694    
     39900   994.83159     -183.10791     -80991.909      2769542.3      118.02055      118.01937      198.83694    
     40000   998.70106     -203.73814     -80977.575      2769542.3      118.02055      118.01937      198.83694    
     40100   1004.8885     -239.50951     -80933.355      2769542.3      118.02055      118.01937      198.83694    
     40200   1004.5169     -88.992258     -80879.533      2769542.3      118.02055      118.01937      198.83694    
     40300   1002.1513     -155.5192      -80901.21       2769542.3      118.02055      118.01937      198.83694    
     40400   999.17669     -155.89255     -80937.147      2769542.3      118.02055      118.01937      198.83694    
     40500   998.78929     -92.597362     -80959.825      2769542.3      118.02055      118.01937      198.83694    
     40600   995.76543     -22.990444     -80993.194      2769542.3      118.02055      118.01937      198.83694    
     40700   998.49201     -69.285305     -81021.875      2769542.3      118.02055      118.01937      198.83694    
     40800   994.83173     -23.410883     -81055.135      2769542.3      118.02055      118.01937      198.83694    
     40900   994.1411      -83.794431     -81096.465      2769542.3      118.02055      118.01937      198.83694    
     41000   996.05378     -135.76478     -81109.237      2769542.3      118.02055      118.01937      198.83694    
     41100   995.28487     -28.619855     -81069.245      2769542.3      118.02055      118.01937      198.83694    
     41200   1000.5067      57.760596     -81018.84       2769542.3      118.02055      118.01937      198.83694    
     41300   1001.357       77.192164     -81010.829      2769542.3      118.02055      118.01937      198.83694    
     41400   1001.2193      22.579932     -81030.675      2769542.3      118.02055      118.01937      198.83694    
     41500   995.57723     -28.296148     -81081.906      2769542.3      118.02055      118.01937      198.83694    
     41600   999.35422     -123.55996     -81106.566      2769542.3      118.02055      118.01937      198.83694    
     41700   990.66289      36.742581     -81132.804      2769542.3      118.02055      118.01937      198.83694    
     41800   998.95006     -90.033644     -81121.079      2769542.3      118.02055      118.01937      198.83694    
     41900   998.68145      87.932506     -81080.68       2769542.3      118.02055      118.01937      198.83694    
     42000   1002.086       239.72655     -81038.346      2769542.3      118.02055      118.01937      198.83694    
     42100   1005.2913      143.70453     -81027.128      2769542.3      118.02055      118.01937      198.83694    
     42200   1003.4606     -79.069647     -81077.182      2769542.3      118.02055      118.01937      198.83694    
     42300   998.00078     -181.15753     -81108.398      2769542.3      118.02055      118.01937      198.83694    
     42400   1004.1279     -276.69151     -81088.428      2769542.3      118.02055      118.01937      198.83694    
     42500   1000.8224     -204.06518     -81064.987      2769542.3      118.02055      118.01937      198.83694    
     42600   1001.8149     -148.70558     -81034.673      2769542.3      118.02055      118.01937      198.83694    
     42700   1004.5249     -94.092652     -80999.639      2769542.3      118.02055      118.01937      198.83694    
     42800   1005.3277     -54.611313     -80975.738      2769542.3      118.02055      118.01937      198.83694    
     42900   1003.1577     -204.16712     -81021.52       2769542.3      118.02055      118.01937      198.83694    
     43000   1001.9888     -329.44504     -81062.719      2769542.3      118.02055      118.01937      198.83694    
     43100   994.97093     -202.46784     -81098.688      2769542.3      118.02055      118.01937      198.83694    
     43200   998.55781     -250.13255     -81117.27       2769542.3      118.02055      118.01937      198.83694    
     43300   998.52903     -267.3035      -81125.666      2769542.3      118.02055      118.01937      198.83694    
     43400   1002.6033     -228.00926     -81083.492      2769542.3      118.02055      118.01937      198.83694    
     43500   1005.0649     -187.32657     -81052.215      2769542.3      118.02055      118.01937      198.83694    
     43600   1000.9734     -107.91236     -81075.457      2769542.3      118.02055      118.01937      198.83694    
     43700   998.85663     -166.53482     -81116.239      2769542.3      118.02055      118.01937      198.83694    
     43800   994.0425      -232.39132     -81169.851      2769542.3      118.02055      118.01937      198.83694    
     43900   1006.1761     -475.49451     -81172.247      2769542.3      118.02055      118.01937      198.83694    
     44000   992.31914     -218.67237     -81189.649      2769542.3      118.02055      118.01937      198.83694    
     44100   1000.7091     -182.26076     -81127.874      2769542.3      118.02055      118.01937      198.83694    
     44200   1001.2961     -36.357158     -81086.1        2769542.3      118.02055      118.01937      198.83694    
     44300   1004.2602     -17.099892     -81077.441      2769542.3      118.02055      118.01937      198.83694    
     44400   999.71292     -40.547718     -81130.689      2769542.3      118.02055      118.01937      198.83694    
     44500   998.28295     -128.55328     -81163.956      2769542.3      118.02055      118.01937      198.83694    
     44600   994.33503     -4.3190999     -81174.789      2769542.3      118.02055      118.01937      198.83694    
     44700   1004.2651     -12.222838     -81153.022      2769542.3      118.02055      118.01937      198.83694    
     44800   1001.8519      79.107223     -81160.1        2769542.3      118.02055      118.01937      198.83694    
     44900   1004.5797     -85.748042     -81189.598      2769542.3      118.02055      118.01937      198.83694    
     45000   999.43524     -70.220387     -81224.748      2769542.3      118.02055      118.01937      198.83694    
     45100   996.60957     -16.596799     -81243.378      2769542.3      118.02055      118.01937      198.83694    
     45200   993.83675      141.31358     -81224.109      2769542.3      118.02055      118.01937      198.83694    
     45300   1003.2309      244.9265      -81158.043      2769542.3      118.02055      118.01937      198.83694    
     45400   1004.9265      247.92936     -81164.408      2769542.3      118.02055      118.01937      198.83694    
     45500   999.78352      208.25132     -81207.04       2769542.3      118.02055      118.01937      198.83694    
     45600   1001.4462     -33.402288     -81235.148      2769542.3      118.02055      118.01937      198.83694    
     45700   996.37083     -51.071092     -81250.299      2769542.3      118.02055      118.01937      198.83694    
     45800   1000.079      -97.899525     -81234.235      2769542.3      118.02055      118.01937      198.83694    
     45900   1002.3518     -29.591682     -81231.85       2769542.3      118.02055      118.01937      198.83694    
     46000   999.43927      30.129687     -81247.242      2769542.3      118.02055      118.01937      198.83694    
     46100   997.89471     -96.257124     -81293.171      2769542.3      118.02055      118.01937      198.83694    
     46200   990.97226     -180.00144     -81338.584      2769542.3      118.02055      118.01937      198.83694    
     46300   996.97213     -168.65889     -81280.511      2769542.3      118.02055      118.01937      198.83694    
     46400   1002.5224     -101.86631     -81236.072      2769542.3      118.02055      118.01937      198.83694    
     46500   1002.3989     -70.300602     -81214.392      2769542.3      118.02055      118.01937      198.83694    
     46600   999.07218     -63.676126     -81209.953      2769542.3      118.02055      118.01937      198.83694    
     46700   999.5199      -109.268       -81209.942      2769542.3      118.02055      118.01937      198.83694    
     46800   1001.2877     -132.8199      -81206.519      2769542.3      118.02055      118.01937      198.83694    
     46900   1001.3977     -59.275373     -81210.229      2769542.3      118.02055      118.01937      198.83694    
     47000   1001.4054     -93.225234     -81226.824      2769542.3      118.02055      118.01937      198.83694    
     47100   1000.096      -303.62906     -81269.422      2769542.3      118.02055      118.01937      198.83694    
     47200   997.19763     -433.0859      -81282.475      2769542.3      118.02055      118.01937      198.83694    
     47300   998.53254     -384.49065     -81236.867      2769542.3      118.02055      118.01937      198.83694    
     47400   997.8789      -283.56721     -81216.365      2769542.3      118.02055      118.01937      198.83694    
     47500   1002.4256     -354.62788     -81203.931      2769542.3      118.02055      118.01937      198.83694    
     47600   997.49929     -275.16379     -81207.382      2769542.3      118.02055      118.01937      198.83694    
     47700   1000.7469     -252.0528      -81186.659      2769542.3      118.02055      118.01937      198.83694    
     47800   1004.9062     -204.86888     -81143.589      2769542.3      118.02055      118.01937      198.83694    
     47900   1001.1806     -217.98709     -81173.715      2769542.3      118.02055      118.01937      198.83694    
     48000   1000.194      -301.54627     -81213.966      2769542.3      118.02055      118.01937      198.83694    
     48100   998.9204      -301.21263     -81245.476      2769542.3      118.02055      118.01937      198.83694    
     48200   1002.4178     -310.78248     -81261.387      2769542.3      118.02055      118.01937      198.83694    
     48300   997.36626     -193.5565      -81279.399      2769542.3      118.02055      118.01937      198.83694    
     48400   999.78463     -142.89322     -81280.102      2769542.3      118.02055      118.01937      198.83694    
     48500   1000.415      -49.160502     -81258.63       2769542.3      118.02055      118.01937      198.83694    
     48600   1005.7236     -102.99445     -81232.389      2769542.3      118.02055      118.01937      198.83694    
     48700   997.98183     -35.345702     -81261.214      2769542.3      118.02055      118.01937      198.83694    
     48800   998.66598     -211.42711     -81295.315      2769542.3      118.02055      118.01937      198.83694    
     48900   999.52685     -209.02348     -81305.367      2769542.3      118.02055      118.01937      198.83694    
     49000   999.0431      -124.98325     -81301.511      2769542.3      118.02055      118.01937      198.83694    
     49100   1002.0299     -26.898183     -81267.696      2769542.3      118.02055      118.01937      198.83694    
     49200   1009.0649     -41.217777     -81238.831      2769542.3      118.02055      118.01937      198.83694    
     49300   999.33873      33.023945     -81288.65       2769542.3      118.02055      118.01937      198.83694    
     49400   1000.546      -75.463412     -81328.558      2769542.3      118.02055      118.01937      198.83694    
     49500   997.86126      2.5335361     -81341.653      2769542.3      118.02055      118.01937      198.83694    
     49600   1002.6707      66.572116     -81313.893      2769542.3      118.02055      118.01937      198.83694    
     49700   1005.9558      116.14396     -81291.596      2769542.3      118.02055      118.01937      198.83694    
     49800   1000.1202      141.10221     -81328.049      2769542.3      118.02055      118.01937      198.83694    
     49900   994.1155      -3.9175611     -81380.78       2769542.3      118.02055      118.01937      198.83694    
     50000   1000.0158     -230.64547     -81386.014      2769542.3      118.02055      118.01937      198.83694    
     50100   996.33867     -182.73096     -81370.942      2769542.3      118.02055      118.01937      198.83694    
     50200   1002.4169     -143.3352      -81306.784      2769542.3      118.02055      118.01937      198.83694    
     50300   1005.5132     -152.06        -81305.102      2769542.3      118.02055      118.01937      198.83694    
     50400   998.66908     -105.37713     -81344.959      2769542.3      118.02055      118.01937      198.83694    
     50500   1000.885      -319.96994     -81365.315      2769542.3      118.02055      118.01937      198.83694    
     50600   998.65292     -461.06242     -81381.091      2769542.3      118.02055      118.01937      198.83694    
     50700   999.66094     -334.43048     -81359.799      2769542.3      118.02055      118.01937      198.83694    
     50800   1002.8923     -82.330462     -81300.471      2769542.3      118.02055      118.01937      198.83694    
     50900   1005.8224     -107.94618     -81296.127      2769542.3      118.02055      118.01937      198.83694    
     51000   1001.3648     -163.34823     -81343.596      2769542.3      118.02055      118.01937      198.83694    
     51100   994.81242     -196.47678     -81377.855      2769542.3      118.02055      118.01937      198.83694    
     51200   1001.4857     -289.81483     -81355.902      2769542.3      118.02055      118.01937      198.83694    
     51300   1002.9072     -272.41196     -81338.193      2769542.3      118.02055      118.01937      198.83694    
     51400   1003.4023     -212.08887     -81343.726      2769542.3      118.02055      118.01937      198.83694    
     51500   1001.5476     -251.26714     -81368.96       2769542.3      118.02055      118.01937      198.83694    
     51600   991.26948     -324.31223     -81444.374      2769542.3      118.02055      118.01937      198.83694    
     51700   991.74395     -244.15752     -81411.379      2769542.3      118.02055      118.01937      198.83694    
     51800   999.02171     -247.01742     -81366.318      2769542.3      118.02055      118.01937      198.83694    
     51900   1001.6129     -265.0995      -81354.736      2769542.3      118.02055      118.01937      198.83694    
     52000   1001.0083     -238.7281      -81346.21       2769542.3      118.02055      118.01937      198.83694    
     52100   1002.5661     -257.62561     -81332.121      2769542.3      118.02055      118.01937      198.83694    
     52200   996.89006     -183.18804     -81365.48       2769542.3      118.02055      118.01937      198.83694    
     52300   998.16158     -261.85364     -81404.215      2769542.3      118.02055      118.01937      198.83694    
     52400   994.19689     -145.22898     -81424.243      2769542.3      118.02055      118.01937      198.83694    
     52500   1007.9226     -200.26335     -81375.574      2769542.3      118.02055      118.01937      198.83694    
     52600   996.69707      66.757697     -81361.583      2769542.3      118.02055      118.01937      198.83694    
     52700   1004.7232     -94.269925     -81346.67       2769542.3      118.02055      118.01937      198.83694    
     52800   996.15821     -94.20642      -81408.439      2769542.3      118.02055      118.01937      198.83694    
     52900   1005.9538     -305.36127     -81420.593      2769542.3      118.02055      118.01937      198.83694    
     53000   998.75374     -197.76457     -81441.582      2769542.3      118.02055      118.01937      198.83694    
     53100   1002.0913     -155.404       -81422.591      2769542.3      118.02055      118.01937      198.83694    
     53200   1003.9902      22.217929     -81367.258      2769542.3      118.02055      118.01937      198.83694    
     53300   1001.1375      225.22577     -81345.929      2769542.3      118.02055      118.01937      198.83694    
     53400   1002.1869      111.65777     -81379.305      2769542.3      118.02055      118.01937      198.83694    
     53500   1003.7927     -80.739863     -81430.685      2769542.3      118.02055      118.01937      198.83694    
     53600   992.42371      137.08107     -81457.708      2769542.3      118.02055      118.01937      198.83694    
     53700   1003.2971     -18.28768      -81430.697      2769542.3      118.02055      118.01937      198.83694    
     53800   1000.3158      0.72859005    -81423.715      2769542.3      118.02055      118.01937      198.83694    
     53900   998.86485     -60.423281     -81459.956      2769542.3      118.02055      118.01937      198.83694    
     54000   996.29011     -191.04143     -81511.26       2769542.3      118.02055      118.01937      198.83694    
     54100   995.36524     -227.12659     -81507.951      2769542.3      118.02055      118.01937      198.83694    
     54200   1000.2071     -173.18649     -81458.349      2769542.3      118.02055      118.01937      198.83694    
     54300   1001.2299     -162.80764     -81441.783      2769542.3      118.02055      118.01937      198.83694    
     54400   999.24376     -110.41459     -81431.763      2769542.3      118.02055      118.01937      198.83694    
     54500   998.84809     -105.73097     -81430.355      2769542.3      118.02055      118.01937      198.83694    
     54600   999.68279     -177.87306     -81444.181      2769542.3      118.02055      118.01937      198.83694    
     54700   998.87013     -216.13426     -81468.955      2769542.3      118.02055      118.01937      198.83694    
     54800   992.03224     -224.04485     -81514.287      2769542.3      118.02055      118.01937      198.83694    
     54900   994.56539     -132.42178     -81480.737      2769542.3      118.02055      118.01937      198.83694    
     55000   1007.6771     -245.03485     -81439.165      2769542.3      118.02055      118.01937      198.83694    
     55100   996.07732     -43.143466     -81461.863      2769542.3      118.02055      118.01937      198.83694    
     55200   1002.9619     -82.225686     -81461.97       2769542.3      118.02055      118.01937      198.83694    
     55300   995.80882     -38.425616     -81499.157      2769542.3      118.02055      118.01937      198.83694    
     55400   995.81818     -124.96184     -81537.08       2769542.3      118.02055      118.01937      198.83694    
     55500   994.6973      -137.84761     -81550.001      2769542.3      118.02055      118.01937      198.83694    
     55600   1004.2901     -40.937323     -81474.45       2769542.3      118.02055      118.01937      198.83694    
     55700   1001.6709      53.616939     -81454.909      2769542.3      118.02055      118.01937      198.83694    
     55800   1004.0808      42.280027     -81465.474      2769542.3      118.02055      118.01937      198.83694    
     55900   994.75501      96.23423      -81508.77       2769542.3      118.02055      118.01937      198.83694    
     56000   995.22673      44.389694     -81515.523      2769542.3      118.02055      118.01937      198.83694    
     56100   1006.7984     -129.60588     -81484.779      2769542.3      118.02055      118.01937      198.83694    
     56200   1002.8295      90.057364     -81450.291      2769542.3      118.02055      118.01937      198.83694    
     56300   1001.5194      88.224724     -81448.505      2769542.3      118.02055      118.01937      198.83694    
     56400   994.22246      77.293185     -81492.381      2769542.3      118.02055      118.01937      198.83694    
     56500   991.52679     -9.5173148     -81519.55       2769542.3      118.02055      118.01937      198.83694    
     56600   1000.49       -107.4183      -81488.602      2769542.3      118.02055      118.01937      198.83694    
     56700   999.48115      77.541266     -81428.669      2769542.3      118.02055      118.01937      198.83694    
     56800   1005.7291     -76.21571      -81423.009      2769542.3      118.02055      118.01937      198.83694    
     56900   995.81747     -58.856733     -81478.574      2769542.3      118.02055      118.01937      198.83694    
     57000   997.12921     -127.66191     -81495.225      2769542.3      118.02055      118.01937      198.83694    
     57100   1000.9551     -181.77659     -81495.515      2769542.3      118.02055      118.01937      198.83694    
     57200   998.36032     -149.07471     -81494.278      2769542.3      118.02055      118.01937      198.83694    
     57300   1001.1383     -12.221869     -81447.949      2769542.3      118.02055      118.01937      198.83694    
     57400   1008.2371     -103.15339     -81420.474      2769542.3      118.02055      118.01937      198.83694    
     57500   997.92498     -42.224519     -81468.764      2769542.3      118.02055      118.01937      198.83694    
     57600   998.27553     -162.20186     -81484.339      2769542.3      118.02055      118.01937      198.83694    
     57700   1001.3988     -261.31175     -81492.492      2769542.3      118.02055      118.01937      198.83694    
     57800   996.88088     -286.6592      -81537.226      2769542.3      118.02055      118.01937      198.83694    
     57900   995.69715     -331.20429     -81568.972      2769542.3      118.02055      118.01937      198.83694    
     58000   1003.1532     -240.09953     -81504.561      2769542.3      118.02055      118.01937      198.83694    
     58100   1002.0586     -154.08385     -81467.69       2769542.3      118.02055      118.01937      198.83694    
     58200   1000.9585     -286.14528     -81492.03       2769542.3      118.02055      118.01937      198.83694    
     58300   996.9829      -372.54763     -81532.666      2769542.3      118.02055      118.01937      198.83694    
     58400   997.74229     -331.45847     -81525.656      2769542.3      118.02055      118.01937      198.83694    
     58500   1002.5664     -279.40204     -81480.653      2769542.3      118.02055      118.01937      198.83694    
     58600   998.68766     -77.592936     -81455.007      2769542.3      118.02055      118.01937      198.83694    
     58700   1007.8043     -67.734277     -81404.089      2769542.3      118.02055      118.01937      198.83694    
     58800   1004.1279      12.608165     -81401.812      2769542.3      118.02055      118.01937      198.83694    
     58900   1002.8707     -213.72911     -81476.965      2769542.3      118.02055      118.01937      198.83694    
     59000   1000.268      -275.41579     -81511.583      2769542.3      118.02055      118.01937      198.83694    
     59100   999.22961     -321.03644     -81545.699      2769542.3      118.02055      118.01937      198.83694    
     59200   999.9106      -323.4528      -81549.674      2769542.3      118.02055      118.01937      198.83694    
     59300   1008.9534     -382.11522     -81504.225      2769542.3      118.02055      118.01937      198.83694    
     59400   1000.7152     -231.55982     -81496.992      2769542.3      118.02055      118.01937      198.83694    
     59500   999.65526     -387.32747     -81540.648      2769542.3      118.02055      118.01937      198.83694    
     59600   996.40744     -474.49648     -81589.696      2769542.3      118.02055      118.01937      198.83694    
     59700   998.17339     -416.77133     -81561.616      2769542.3      118.02055      118.01937      198.83694    
     59800   1000.8373     -243.37074     -81515.857      2769542.3      118.02055      118.01937      198.83694    
     59900   1004.1613     -193.3022      -81505.988      2769542.3      118.02055      118.01937      198.83694    
     60000   1000.4098     -168.94232     -81543.127      2769542.3      118.02055      118.01937      198.83694    
     60100   1000.8541     -267.97927     -81581.529      2769542.3      118.02055      118.01937      198.83694    
     60200   999.31899     -174.24833     -81581.887      2769542.3      118.02055      118.01937      198.83694    
     60300   1005.1901     -121.51375     -81557.289      2769542.3      118.02055      118.01937      198.83694    
     60400   1004.1064     -46.199392     -81565.684      2769542.3      118.02055      118.01937      198.83694    
     60500   995.98367      32.44662      -81625.391      2769542.3      118.02055      118.01937      198.83694    
     60600   996.07619     -30.515484     -81639.337      2769542.3      118.02055      118.01937      198.83694    
     60700   1000.105      -53.104931     -81624.515      2769542.3      118.02055      118.01937      198.83694    
     60800   999.70478      22.842702     -81617.113      2769542.3      118.02055      118.01937      198.83694    
     60900   996.99867      122.67281     -81617.046      2769542.3      118.02055      118.01937      198.83694    
     61000   1005.9137      53.424306     -81594.688      2769542.3      118.02055      118.01937      198.83694    
     61033   1004.0532      126.92935     -81585.305      2769542.3      118.02055      118.01937      198.83694    
Loop time of 434.229 on 32 procs for 50000 steps with 55296 atoms

Performance: 9.949 ns/day, 2.412 hours/ns, 115.147 timesteps/s, 6.367 Matom-step/s
99.9% CPU use with 32 MPI tasks x 1 OpenMP threads

MPI task timing breakdown:
Section |  min time  |  avg time  |  max time  |%varavg| %total
---------------------------------------------------------------
Pair    | 25.318     | 195.54     | 402.02     | 991.5 | 45.03
Bond    | 0.0021788  | 0.0049349  | 0.0087607  |   2.4 |  0.00
Neigh   | 0.44388    | 3.6163     | 7.518      | 138.4 |  0.83
Comm    | 9.7836     | 216.55     | 390.41     | 946.4 | 49.87
Output  | 1.1855     | 2.9605     | 4.7488     |  60.8 |  0.68
Modify  | 7.4024     | 11.976     | 21.606     | 133.0 |  2.76
Other   |            | 3.577      |            |       |  0.82

Nlocal:           1728 ave        3354 max         307 min
Histogram: 8 3 5 0 0 0 7 1 0 8
Nghost:        4657.25 ave        6621 max        2725 min
Histogram: 15 1 0 0 0 0 0 0 0 16
Neighs:         293347 ave      608560 max       34106 min
Histogram: 8 5 3 0 0 1 6 1 1 7

Total # of neighbors = 9387091
Ave neighs/atom = 169.76076
Ave special neighs/atom = 0
Neighbor list builds = 437
Dangerous builds = 0
Generated 0 of 0 mixed pair_coeff terms from geometric mixing rule
Setting up Verlet run ...
  Unit style    : metal
  Current step  : 61033
  Time step     : 0.0005
Per MPI rank memory allocation (min/avg/max) = 7.61 | 8.986 | 10.95 Mbytes
   Step          Temp          Press          TotEng         Volume           Lx             Ly             Lz      
     61033   1000           115.75673     -81614.274      2769542.3      118.02055      118.01937      198.83694    
     61100   1002.1223     -11.316806     -81616.931      2770076.4      118.02813      118.02696      198.84972    
     61200   990.06133      22.050371     -81623.696      2771282.5      118.04526      118.04409      198.87857    
     61300   1004.6666     -152.73874     -81548.771      2771631.5      118.05022      118.04904      198.88692    
     61400   1000.9514      206.91522     -81560.207      2769048.8      118.01354      118.01236      198.82513    
     61500   1001.4703     -140.00901     -81590.974      2770331.3      118.03175      118.03058      198.85582    
     61600   996.74901     -62.119226     -81622.958      2769452.8      118.01928      118.0181       198.8348     
     61700   1003.9075      133.69952     -81629.079      2766949.9      117.98371      117.98254      198.77488    
     61800   995.42677      18.081825     -81702.363      2767207.6      117.98737      117.9862       198.78105    
     61900   996.76052     -110.89661     -81698.594      2767766        117.99531      117.99414      198.79442    
     62000   997.59602      163.34026     -81651.817      2766517.8      117.97757      117.9764       198.76453    
     62100   1004.7141     -127.42684     -81615.415      2767983.1      117.9984       117.99722      198.79962    
     62200   997.65824     -1.4213832     -81628.64       2767468.3      117.99108      117.98991      198.78729    
     62300   1002.3767      49.639904     -81636.502      2766088.3      117.97147      117.97029      198.75425    
     62400   994.97285     -51.059315     -81682.935      2766446.8      117.97656      117.97539      198.76283    
     62500   991.58635      17.44874      -81702.433      2765401.3      117.9617       117.96052      198.73779    
     62600   1003.7345      102.51269     -81643.747      2763874.7      117.93999      117.93882      198.70121    
     62700   1003.1417     -106.72724     -81638.26       2764943.3      117.95518      117.95401      198.72682    
     62800   997.38656      12.618825     -81660.707      2764231.2      117.94506      117.94389      198.70975    
     62900   997.72783      141.70392     -81656.566      2763419.9      117.93352      117.93235      198.69031    
     63000   1001.5395     -101.58454     -81582.568      2765987.7      117.97004      117.96886      198.75184    
     63100   1003.8066     -135.2766      -81564.259      2766406.6      117.97599      117.97482      198.76187    
     63200   1001.7844      193.7242      -81592.695      2763926.7      117.94073      117.93955      198.70246    
     63300   997.74052     -92.796049     -81638.09       2765302        117.96029      117.95911      198.73541    
     63400   996.26631     -45.79011      -81644.906      2764951.8      117.95531      117.95413      198.72702    
     63500   1001.8064      122.33566     -81623.014      2763353.7      117.93258      117.9314       198.68873    
     63600   1002.2066     -95.709203     -81625.375      2764369.5      117.94702      117.94585      198.71307    
     63700   999.38445     -27.386074     -81643.189      2763625.2      117.93644      117.93527      198.69523    
     63800   999.06585      135.02286     -81653.156      2762043.5      117.91393      117.91276      198.65732    
     63900   1000.2376     -102.65321     -81667.527      2762866.6      117.92565      117.92447      198.67705    
     64000   995.2586      -8.563043      -81728.352      2761408.2      117.90489      117.90372      198.64209    
     64100   994.92459      183.42303     -81715.831      2760123.9      117.88661      117.88544      198.61129    
     64200   1001.379      -185.7532      -81663.699      2762322.3      117.9179       117.91673      198.664      
     64300   998.33952      25.233113     -81642.798      2761159.6      117.90135      117.90018      198.63613    
     64400   1006.1663      43.018688     -81622.76       2759965.3      117.88435      117.88318      198.60748    
     64500   996.79097     -23.213995     -81660.687      2760324.9      117.88947      117.8883       198.61611    
     64600   995.23296     -74.369982     -81685.183      2759841.3      117.88259      117.88142      198.60451    
     64700   1004.989       127.29598     -81649.696      2757523        117.84957      117.8484       198.54888    
     64800   999.90372      95.351159     -81639.117      2758238.5      117.85976      117.85859      198.56605    
     64900   995.48589     -240.18336     -81631.61       2760793.3      117.89614      117.89497      198.62734    
     65000   1007.1107      37.588642     -81584.757      2757961.9      117.85582      117.85465      198.55942    
     65100   997.90157      295.67207     -81610.588      2756347.3      117.83282      117.83165      198.52066    
     65200   1000.7106     -432.75402     -81622.978      2759866.7      117.88295      117.88178      198.60512    
     65300   996.07165      258.31843     -81634.439      2755258.4      117.8173       117.81613      198.49451    
     65400   1006.164       152.50138     -81591.901      2755158.7      117.81588      117.81471      198.49212    
     65500   1002.4843     -310.23299     -81570.48       2758771.9      117.86736      117.86619      198.57885    
     65600   1000.1641      55.08709      -81596.638      2755592.2      117.82206      117.82089      198.50253    
     65700   1002.8253      155.75687     -81647.389      2753372.1      117.79041      117.78924      198.44921    
     65800   995.82926     -119.02161     -81679.85       2755089.7      117.8149       117.81373      198.49046    
     65900   1000.7086     -59.756549     -81666.704      2753825.1      117.79687      117.7957       198.46009    
     66000   1000.0401      224.26839     -81659.967      2751742        117.76716      117.76599      198.41004    
     66100   1003.7265     -218.96634     -81650.381      2753840.3      117.79708      117.79591      198.46045    
     66200   994.98649      80.464532     -81667.232      2752173        117.77331      117.77214      198.42039    
     66300   1004.0654      12.16698      -81660.722      2751076.7      117.75767      117.7565       198.39405    
     66400   997.16532      7.4633986     -81681.126      2751183.3      117.75919      117.75802      198.39661    
     66500   997.30983     -75.731928     -81676.589      2751289.9      117.76071      117.75954      198.39917    
     66600   1004.9346      71.93224      -81627.144      2749834.8      117.73994      117.73877      198.36419    
     66700   996.19323      122.87662     -81626.112      2750215.5      117.74538      117.74421      198.37334    
     66800   1004.4659     -269.96238     -81585.988      2752127.1      117.77265      117.77148      198.41929    
     66900   1005.5751      179.96702     -81551.696      2749207.8      117.731        117.72983      198.34911    
     67000   999.55976      25.824655     -81590.874      2749724.8      117.73837      117.7372       198.36154    
     67100   1002.3488     -224.54946     -81623.339      2750032.3      117.74276      117.74159      198.36893    
     67200   1002.795       209.77828     -81640.866      2746336.1      117.68999      117.68882      198.28002    
     67300   998.57407     -15.008316     -81670.7        2747270.4      117.70333      117.70216      198.3025     
     67400   994.45757     -114.92436     -81683.129      2747802.9      117.71094      117.70977      198.31532    
     67500   1005.5691      133.58377     -81634.406      2745400.5      117.67662      117.67545      198.2575     
     67600   1004.8529      42.697465     -81618.825      2745993.4      117.68509      117.68392      198.27177    
     67700   993.05814     -209.32918     -81695.138      2747114.1      117.7011       117.69993      198.29874    
     67800   1002.0247      96.53424      -81690.382      2743612.7      117.65107      117.6499       198.21446    
     67900   1002.328       143.79207     -81687.225      2743006.7      117.64241      117.64124      198.19986    
     68000   992.46147     -195.65685     -81712.959      2745415        117.67683      117.67566      198.25785    
     68100   1000.4376      3.3562128     -81674.532      2743294.2      117.64652      117.64535      198.20679    
     68200   1004.8138      208.96107     -81647.196      2741523.2      117.6212       117.62003      198.16413    
     68300   1001.3232     -244.13539     -81678.388      2743778.4      117.65344      117.65227      198.21845    
     68400   996.54866      40.933062     -81705.144      2741506.1      117.62095      117.61979      198.16372    
     68500   1000.5236      197.64396     -81694.114      2739916.1      117.59821      117.59704      198.1254     
     68600   1001.5647     -153.27036     -81667.844      2742433.2      117.63421      117.63304      198.18605    
     68700   1006.73       -4.8411936     -81619.274      2741617.1      117.62254      117.62137      198.16639    
     68800   1002.415       92.455277     -81649.389      2740567.6      117.60753      117.60636      198.1411     
     68900   997.63909     -127.65939     -81695.332      2741374.7      117.61908      117.61791      198.16055    
     69000   998.85292      43.955764     -81693.3        2739738.6      117.59567      117.5945       198.12112    
     69100   1000.2039      106.22291     -81679.083      2738886.8      117.58348      117.58231      198.10059    
     69200   1004.8399     -189.21126     -81655.457      2739959.3      117.59883      117.59766      198.12644    
     69300   1005.3818      88.211998     -81642.125      2737531        117.56408      117.56291      198.06789    
     69400   996.21808      110.74349     -81692.817      2736814.3      117.55382      117.55265      198.05061    
     69500   1000.906      -272.43263     -81707.205      2737675.9      117.56615      117.56498      198.07139    
     69600   999.37158      222.90431     -81735.511      2733338.5      117.50403      117.50286      197.96673    
     69700   995.49357      28.667909     -81797.044      2733194.7      117.50197      117.5008       197.96326    
     69800   996.97978     -197.77045     -81804.39       2733800.7      117.51065      117.50949      197.97789    
     69900   996.91569      244.20926     -81780.145      2730880.9      117.4688       117.46764      197.90738    
     70000   996.85892     -34.175709     -81752.291      2732600.6      117.49346      117.49229      197.94891    
     70100   998.27529     -161.32243     -81719.039      2733462.1      117.5058       117.50463      197.96971    
     70200   1001.0424      190.07896     -81687.108      2731124.6      117.4723       117.47113      197.91326    
     70300   1004.4335     -112.37213     -81690.029      2731968.7      117.4844       117.48323      197.93365    
     70400   995.92097      3.2324228     -81717.583      2731089.8      117.4718       117.47063      197.91242    
     70500   1003.9923     -27.121324     -81707.232      2729795.1      117.45323      117.45206      197.88114    
     70600   995.89245      143.10774     -81727.703      2728688.1      117.43735      117.43619      197.85439    
     70700   1000.1115     -131.23551     -81715.62       2729629.9      117.45086      117.4497       197.87715    
     70800   1000.0561      135.66251     -81666.597      2728614.9      117.4363       117.43514      197.85262    
     70900   1003.5406     -46.53724      -81609.297      2729982.3      117.45592      117.45475      197.88567    
     71000   1006.2598     -234.00934     -81625.233      2730109.2      117.45774      117.45657      197.88873    
     71033   1004.5846     -65.308316     -81644.014      2728725.6      117.43789      117.43673      197.8553     
Loop time of 87.8357 on 32 procs for 10000 steps with 55296 atoms

Performance: 4.918 ns/day, 4.880 hours/ns, 113.849 timesteps/s, 6.295 Matom-step/s
99.9% CPU use with 32 MPI tasks x 1 OpenMP threads

MPI task timing breakdown:
Section |  min time  |  avg time  |  max time  |%varavg| %total
---------------------------------------------------------------
Pair    | 5.137      | 39.684     | 81.324     | 448.7 | 45.18
Bond    | 0.00043563 | 0.0010095  | 0.0020643  |   1.2 |  0.00
Neigh   | 0.044877   | 0.37067    | 0.77058    |  44.4 |  0.42
Comm    | 1.9991     | 43.157     | 77.793     | 427.4 | 49.13
Output  | 0.23331    | 0.56322    | 0.89419    |  25.9 |  0.64
Modify  | 2.2543     | 3.6233     | 5.7133     |  55.5 |  4.13
Other   |            | 0.4365     |            |       |  0.50

Nlocal:           1728 ave        3328 max         317 min
Histogram: 8 2 6 0 0 0 7 1 0 8
Nghost:        4684.81 ave        6611 max        2747 min
Histogram: 15 1 0 0 0 0 0 0 0 16
Neighs:         293421 ave      609090 max       33291 min
Histogram: 8 4 4 0 0 1 6 1 1 7

Total # of neighbors = 9389469
Ave neighs/atom = 169.80377
Ave special neighs/atom = 0
Neighbor list builds = 45
Dangerous builds = 0
Generated 0 of 0 mixed pair_coeff terms from geometric mixing rule
Setting up Verlet run ...
  Unit style    : metal
  Current step  : 71033
  Time step     : 0.001
Per MPI rank memory allocation (min/avg/max) = 7.61 | 8.986 | 10.95 Mbytes
   Step          Temp          Press          TotEng         Volume           Lx             Ly             Lz      
     71033   1000          -78.134883     -81676.782      2728725.6      117.43789      117.43673      197.8553     
     71100   995.03194      168.6098      -81690.208      2727443.2      117.41949      117.41832      197.8243     
     71200   1006.5387     -34.589925     -81616.762      2728272.3      117.43139      117.43022      197.84434    
     71300   1001.5769     -183.70197     -81687.62       2728853        117.43972      117.43855      197.85838    
     71400   997.23124      134.18065     -81707.873      2727706.2      117.42327      117.4221       197.83066    
     71500   996.63744      122.33641     -81723.068      2728164.3      117.42984      117.42867      197.84173    
     71600   994.79956      54.198526     -81780.285      2727440.8      117.41946      117.41829      197.82424    
     71700   994.39123      119.92638     -81778.502      2727189.1      117.41585      117.41468      197.81816    
     71800   998.51289      64.825381     -81684.029      2728969.7      117.44139      117.44023      197.8612     
     71900   998.62295     -18.91327      -81690.702      2729212.9      117.44488      117.44371      197.86708    
     72000   1003.1047     -26.254427     -81693.3        2728688.1      117.43735      117.43619      197.85439    
     72100   997.21374     -133.75695     -81762.033      2728858.1      117.43979      117.43863      197.8585     
     72200   998.45091      211.04259     -81773.61       2726250.8      117.40238      117.40121      197.79547    
     72300   999.60199      38.554168     -81697.161      2728927.6      117.44079      117.43962      197.86018    
     72400   999.76333     -104.63394     -81690.962      2729598.4      117.45041      117.44924      197.87639    
     72500   998.11722      201.71128     -81715.15       2726812.6      117.41044      117.40927      197.80905    
     72600   1002.0806      0.23507585    -81688.025      2728109.2      117.42905      117.42788      197.8404     
     72700   995.72449     -64.527281     -81727.332      2728672        117.43712      117.43596      197.854      
     72800   1005.5119      234.04329     -81679.425      2726702.7      117.40886      117.4077       197.80639    
     72900   996.57944     -81.411649     -81752.368      2728383.3      117.43298      117.43181      197.84703    
     73000   1002.0987     -21.314742     -81725.928      2727423.6      117.41921      117.41804      197.82383    
     73100   995.29613      104.00992     -81783.416      2726466.4      117.40547      117.40431      197.80068    
     73200   1000.3515      58.535224     -81752.75       2726825.5      117.41063      117.40946      197.80936    
     73300   998.53907      24.179056     -81750.114      2727617        117.42199      117.42082      197.8285     
     73400   1002.0785      2.0246749     -81763.619      2727132.4      117.41503      117.41386      197.81678    
     73500   991.88845     -59.172146     -81845.981      2727209.1      117.41613      117.41497      197.81864    
     73600   999.52986      58.411321     -81762.583      2727472.8      117.41992      117.41875      197.82502    
     73700   1001.3803      15.01821      -81694.314      2728869.4      117.43996      117.43879      197.85878    
     73800   1002.1184     -41.379372     -81719.275      2728676.5      117.43719      117.43602      197.85411    
     73900   1000.0677      63.369542     -81761.206      2727185.8      117.4158       117.41463      197.81808    
     74000   1002.1607     -61.113966     -81750.994      2727860.1      117.42547      117.42431      197.83438    
     74100   1000.0537     -159.92381     -81710.764      2729566.1      117.44995      117.44878      197.87561    
     74200   996.65434      310.20986     -81796.059      2724837        117.38208      117.38091      197.76127    
     74300   995.53951     -31.84117      -81816.635      2726703.6      117.40888      117.40771      197.80642    
     74400   1002.4493     -137.20986     -81729.398      2727895.9      117.42599      117.42482      197.83524    
     74500   1001.2929      108.56756     -81749.847      2725930.2      117.39778      117.39661      197.78771    
     74600   997.85397     -73.273464     -81813.791      2726101.4      117.40023      117.39907      197.79185    
     74700   1001.3623     -117.97618     -81774.49       2726785.7      117.41006      117.40889      197.8084     
     74800   1002.8183      42.628434     -81726.92       2726699.3      117.40882      117.40765      197.80631    
     74900   998.04514     -0.72859235    -81796.96       2725764.2      117.39539      117.39423      197.7837     
     75000   998.64364      59.659807     -81831.479      2723820.6      117.36748      117.36632      197.73668    
     75100   1005.872       69.772751     -81760.326      2723790.5      117.36705      117.36588      197.73595    
     75200   1001.5293     -236.09463     -81743.172      2726345.5      117.40374      117.40257      197.79776    
     75300   996.62091      6.0152149     -81828.027      2723243.5      117.35919      117.35803      197.72271    
     75400   1001.769       197.93849     -81803.098      2721250.6      117.33056      117.32939      197.67447    
     75500   999.87572     -323.77123     -81770.185      2725189.2      117.38714      117.38597      197.76979    
     75600   997.43468      101.44569     -81778.834      2722326        117.34601      117.34485      197.7005     
     75700   999.40409      377.87361     -81814.639      2719542.7      117.30601      117.30484      197.6331     
     75800   987.16996     -294.97698     -81880.988      2724005.3      117.37014      117.36897      197.74115    
     75900   995.70736      312.4243      -81829.192      2720239.4      117.31602      117.31486      197.64998    
     76000   1000.9825      117.459       -81761.201      2722089        117.34261      117.34144      197.69477    
     76100   1000.2027     -275.65312     -81820.296      2722890.3      117.35412      117.35295      197.71416    
     76200   999.01797      154.1314      -81842.89       2719615.4      117.30705      117.30589      197.63487    
     76300   1001.562       109.25077     -81776.807      2720547.5      117.32045      117.31929      197.65744    
     76400   999.96988     -191.36923     -81765.611      2722025        117.34169      117.34052      197.69322    
     76500   1003.8618      18.086825     -81761.792      2719500.8      117.30541      117.30424      197.63209    
     76600   997.33519      22.841499     -81845.06       2717813.4      117.28114      117.27997      197.5912     
     76700   998.45765     -109.58098     -81858.193      2717630.4      117.2785       117.27734      197.58677    
     76800   1001.8197      130.70597     -81794.124      2716628        117.26408      117.26292      197.56247    
     76900   1001.9033     -19.11493      -81821.466      2716201        117.25794      117.25678      197.55212    
     77000   997.57393     -169.56463     -81880.034      2715520.6      117.24815      117.24698      197.53563    
     77100   1001.458       187.63168     -81813.269      2713314.9      117.2164       117.21523      197.48213    
     77200   996.26433      62.441409     -81795.834      2714773.8      117.2374       117.23623      197.51752    
     77300   1003.469      -161.04987     -81764.848      2715652        117.25004      117.24887      197.53881    
     77400   1007.9138     -178.69954     -81785.669      2714105.1      117.22777      117.22661      197.5013     
     77500   998.29299     -58.314748     -81863.042      2712437.4      117.20376      117.20259      197.46084    
     77600   1006.5806      40.155244     -81815.624      2711380.2      117.18853      117.18736      197.43518    
     77700   995.28764     -132.37475     -81842.68       2713406.1      117.21771      117.21654      197.48434    
     77800   1003.6578      114.5293      -81827.676      2710866.2      117.18112      117.17996      197.4227     
     77900   1001.1427     -83.871455     -81840.519      2711745        117.19378      117.19262      197.44403    
     78000   1004.5002     -205.67037     -81799.906      2712677        117.20721      117.20604      197.46665    
     78100   993.19627      154.55619     -81902.321      2709418.9      117.16027      117.1591       197.38756    
     78200   998.35434      48.548765     -81835.004      2710473.9      117.17547      117.1743       197.41318    
     78300   999.4663       2.5917018     -81818.733      2710747        117.1794       117.17824      197.41981    
     78400   995.51617      73.180017     -81916.435      2708453.3      117.14634      117.14518      197.36411    
     78500   1001.7174     -32.193066     -81874.287      2708766        117.15085      117.14969      197.37171    
     78600   1006.8019      0.94245885    -81809.285      2709187.3      117.15693      117.15576      197.38194    
     78700   1000.631      -142.38013     -81804.226      2710295        117.17289      117.17173      197.40883    
     78800   995.27314      14.682485     -81850.119      2708293.2      117.14404      117.14287      197.36022    
     78900   999.70333      300.40771     -81873.598      2705433.8      117.1028       117.10163      197.29074    
     79000   998.65679     -129.98245     -81891.055      2708361.9      117.14503      117.14386      197.36189    
     79100   1002.6813     -121.15733     -81830.695      2709286.5      117.15836      117.15719      197.38435    
     79200   995.5832       283.54857     -81870.705      2706716.2      117.12129      117.12013      197.32191    
     79300   998.59137      18.856617     -81864.326      2707736.3      117.13601      117.13484      197.34669    
     79400   996.08364     -42.651518     -81925.671      2706525.8      117.11855      117.11739      197.31728    
     79500   1006.3782      34.783713     -81889.264      2705395.2      117.10224      117.10107      197.2898     
     79600   992.66951     -72.94406      -81924.595      2707272.6      117.12932      117.12816      197.33543    
     79700   999.06617      117.85683     -81887.669      2705963.2      117.11043      117.10927      197.30361    
     79800   996.04747      71.371931     -81918.104      2706208.9      117.11398      117.11281      197.30958    
     79900   1004.0065      60.237489     -81867.86       2705951.4      117.11026      117.1091       197.30332    
     80000   994.53531     -84.849302     -81919.451      2706969.4      117.12495      117.12378      197.32806    
     80100   996.67228      54.867395     -81877.45       2706311.9      117.11546      117.1143       197.31208    
     80200   1000.6183      206.47038     -81824.089      2705576.8      117.10486      117.1037       197.29422    
     80300   994.05995     -69.822128     -81848.039      2707382.5      117.1309       117.12974      197.3381     
     80400   994.20159      262.97571     -81952.49       2702637.1      117.06243      117.06127      197.22273    
     80500   997.07891      13.475136     -81932.611      2703781.7      117.07895      117.07779      197.25057    
     80600   997.78791     -67.507288     -81883.031      2704394.7      117.0878       117.08664      197.26548    
     80700   1009.7473      277.41852     -81788.723      2701879.6      117.05149      117.05033      197.20431    
     80800   1000.5964     -350.67683     -81849.882      2705133.1      117.09846      117.09729      197.28343    
     80900   1001.6966     -136.1909      -81882.432      2702433.1      117.05948      117.05832      197.21777    
     81000   1002.9418      284.97363     -81880.064      2699756.3      117.02082      117.01966      197.15264    
     81100   1002.3882     -215.55755     -81895.902      2702784.4      117.06456      117.06339      197.22632    
     81200   1000.2399     -74.528365     -81937.939      2701187.6      117.0415       117.04034      197.18747    
     81300   1004.7832      97.920268     -81891.657      2700673.2      117.03407      117.03291      197.17495    
     81400   1002.888      -118.66239     -81840.937      2703259.3      117.07141      117.07025      197.23787    
     81500   1000.6136     -29.61396      -81825.579      2702942.4      117.06684      117.06568      197.23016    
     81600   998.17388      291.28054     -81923.443      2698393.2      117.00112      116.99996      197.11945    
     81700   998.70871     -147.14021     -81922.721      2700396.7      117.03008      117.02891      197.16822    
     81800   996.40708      31.635146     -81930.578      2699374.8      117.01531      117.01415      197.14335    
     81900   1001.852       244.74084     -81928.496      2697084.9      116.98221      116.98105      197.08759    
     82000   991.55005     -198.29386     -81964.484      2700684        117.03422      117.03306      197.17521    
     82100   1006.8681      203.75678     -81927.662      2696965.2      116.98048      116.97932      197.08467    
     82200   1002.284      -208.6018      -81902.664      2700618.2      117.03327      117.03211      197.17361    
     82300   997.51136     -133.81789     -81902.431      2700584.7      117.03279      117.03163      197.1728     
     82400   1007.5287      261.38251     -81886.771      2696559.1      116.97461      116.97345      197.07478    
     82500   996.08651     -158.32726     -81964.553      2698843.1      117.00763      117.00646      197.1304     
     82600   1002.3238     -32.171872     -81905.71       2697932.4      116.99446      116.9933       197.10823    
     82700   996.6025       141.67469     -81989.112      2695512.6      116.95948      116.95831      197.04928    
     82800   994.94953      0.50819612    -81981.445      2696582.4      116.97495      116.97378      197.07534    
     82900   1000.6764      47.013176     -81910.21       2697126.1      116.98281      116.98165      197.08859    
     83000   997.73651     -28.477244     -81944.713      2697333.3      116.9858       116.98464      197.09364    
     83100   1002.7802     -45.544532     -81977.972      2695998.3      116.9665       116.96534      197.06112    
     83200   998.66015     -94.830115     -81952.243      2697533        116.98869      116.98753      197.0985     
     83300   1003.0074      167.60584     -81896.813      2696114.4      116.96818      116.96702      197.06394    
     83400   997.70546     -72.051772     -81925.036      2697020        116.98127      116.98011      197.08601    
     83500   1002.0731     -4.3239396     -81868.444      2696615.5      116.97543      116.97426      197.07615    
     83600   997.75458      322.38981     -81918.877      2693704.7      116.93332      116.93216      197.00522    
     83700   997.23559     -87.615408     -81953.269      2695776.5      116.96329      116.96213      197.05571    
     83800   1003.663      -112.34771     -81873.308      2697002.9      116.98103      116.97986      197.08559    
     83900   995.86613      196.80811     -81928.087      2694861        116.95005      116.94889      197.0334     
     84000   996.88043      177.30411     -82007.769      2693145.3      116.92523      116.92406      196.99158    
     84100   1000.7872     -341.42681     -81943.826      2697241.8      116.98448      116.98332      197.09141    
     84200   999.77664      131.75231     -82000.844      2693105.5      116.92465      116.92349      196.99061    
     84300   996.36026      242.48331     -81981.797      2693072.4      116.92417      116.92301      196.9898     
     84400   1000.9054     -243.99114     -81937.794      2696476.9      116.97342      116.97226      197.07278    
     84500   996.71539     -19.986442     -81996.117      2694586.7      116.94608      116.94492      197.02672    
     84600   1001.2796      253.19083     -81953.864      2693472.5      116.92996      116.9288       196.99956    
     84700   994.8968      -120.20862     -81930.341      2696981.3      116.98071      116.97955      197.08506    
     84800   1003.4483      21.447552     -81927.917      2695132.6      116.95398      116.95282      197.04002    
     84900   998.92827      111.72984     -81954.721      2694816.4      116.94941      116.94824      197.03231    
     85000   996.89671      3.2594844     -81947.386      2695479        116.95899      116.95783      197.04846    
     85100   999.25517      34.586174     -81965.421      2694297.1      116.94189      116.94073      197.01966    
     85200   999.96529     -55.051101     -81964.358      2694684.7      116.9475       116.94634      197.02911    
     85300   999.71128      102.10278     -81977.398      2693379.1      116.92861      116.92745      196.99728    
     85400   998.0655       24.259802     -81979.195      2694099        116.93903      116.93786      197.01483    
     85500   998.65963     -80.605526     -81929.884      2695308.9      116.95653      116.95537      197.04432    
     85600   998.6158       174.74465     -81967.013      2692778.7      116.91992      116.91876      196.98264    
     85700   1002.5875     -49.284678     -81994.169      2693022.1      116.92344      116.92228      196.98858    
     85800   994.09867     -367.33115     -82047.116      2695218.6      116.95522      116.95406      197.04212    
     85900   1003.0775      316.97747     -81994.035      2690663.3      116.8893       116.88813      196.93104    
     86000   998.60395     -2.9856503     -81972.907      2693706.2      116.93334      116.93218      197.00525    
     86100   997.00096     -155.28361     -81964.283      2694889.5      116.95046      116.9493       197.0341     
     86200   1000.8218      310.41924     -81977.874      2690993.6      116.89408      116.89292      196.9391     
     86300   992.53732     -38.967678     -82010.95       2693508        116.93048      116.92931      197.00042    
     86400   996.21173      210.97974     -81976.231      2692138.1      116.91065      116.90949      196.96702    
     86500   999.83074      66.526777     -81937.564      2693734.9      116.93376      116.9326       197.00595    
     86600   1003.9075     -286.69467     -81893.721      2696497.4      116.97372      116.97256      197.07328    
     86700   998.97223      143.79927     -81911.514      2693974.7      116.93723      116.93607      197.0118     
     86800   1001.0461      208.58977     -81995.659      2691823.2      116.90609      116.90493      196.95934    
     86900   995.26697     -197.10495     -82012.769      2694718.9      116.948        116.94683      197.02994    
     87000   1001.8741      42.472511     -81958.831      2693555.6      116.93116      116.93         197.00158    
     87100   998.15175      96.254913     -82000.637      2693017.8      116.92338      116.92222      196.98847    
     87200   993.14314     -40.438349     -82051.973      2693500.9      116.93037      116.92921      197.00025    
     87300   1001.8346     -24.281441     -81965.81       2693359.1      116.92832      116.92716      196.99679    
     87400   1004.6524     -120.05496     -81946.038      2693508.9      116.93049      116.92933      197.00044    
     87500   997.94398     -101.28135     -81957.574      2694035.6      116.93811      116.93695      197.01328    
     87600   1003.3723      197.21288     -81978.344      2691030.4      116.89461      116.89345      196.94       
     87700   995.5553      -156.44822     -82052.824      2692557        116.91671      116.91555      196.97723    
     87800   1002.3822      58.543555     -81985.764      2691874.2      116.90683      116.90567      196.96058    
     87900   999.59394      197.07424     -81961.855      2691854.2      116.90654      116.90538      196.96009    
     88000   996.30197     -133.76164     -81970.485      2693791.3      116.93457      116.93341      197.00733    
     88100   1002.9371      135.8919      -81937.487      2691754        116.90509      116.90393      196.95765    
     88200   996.87327      52.148947     -82001.732      2691384.4      116.89974      116.89858      196.94863    
     88300   999.89208     -14.33927      -82016.739      2690730.5      116.89027      116.88911      196.93268    
     88400   999.78822      19.958382     -81997.068      2690334.4      116.88453      116.88337      196.92302    
     88500   999.35236     -43.95967      -81991.238      2690416.6      116.88572      116.88456      196.92503    
     88600   1004.0394     -0.18373723    -82020.089      2688211.6      116.85378      116.85262      196.87121    
     88700   997.02949     -52.429294     -82064.677      2688167.9      116.85315      116.85199      196.87015    
     88800   1002.4865      113.70029     -82012.068      2687578.8      116.84461      116.84345      196.85576    
     88900   997.23562     -112.51078     -81976.935      2690577.8      116.88806      116.8869       196.92896    
     89000   1002.3559     -7.7201527     -81963.2        2689586.6      116.8737       116.87254      196.90477    
     89100   999.33669      96.102613     -82024.694      2687868        116.8488       116.84764      196.86282    
     89200   999.21838     -24.737934     -81984.646      2688432.8      116.85699      116.85583      196.87661    
     89300   1000.8298     -1.2031284     -81984.507      2687474.5      116.8431       116.84194      196.85322    
     89400   1002.8749      94.25233      -82026.008      2685078.6      116.80837      116.80721      196.7947     
     89500   996.25599     -141.78358     -82044.382      2686465.3      116.82847      116.82731      196.82857    
     89600   1002.2078      77.420341     -81983.863      2684625.3      116.80179      116.80063      196.78363    
     89700   1000.6862     -68.978959     -81997.229      2684539.3      116.80055      116.79939      196.78152    
     89800   996.42947     -7.6522676     -82043.014      2682896        116.77671      116.77555      196.74136    
     89900   1002.0286      109.90719     -82003.601      2681926.2      116.76264      116.76148      196.71766    
     90000   1003.9361     -165.08106     -81959.838      2684109.3      116.79431      116.79315      196.77102    
     90100   999.41753     -159.37658     -82034.856      2682890.3      116.77663      116.77547      196.74122    
     90200   997.41487      205.19505     -82044.219      2680333.8      116.73952      116.73836      196.67871    
     90300   999.9852       71.250255     -82022.202      2681228.5      116.75251      116.75135      196.70059    
     90400   1000.6776     -295.95582     -81990.237      2683344.8      116.78322      116.78206      196.75233    
     90500   992.8522       231.30393     -82069.638      2678993.3      116.72006      116.7189       196.64592    
     90600   1001.1843      141.66416     -82028.938      2679168.3      116.7226       116.72144      196.6502     
     90700   995.29106     -177.96218     -82042.443      2681163.1      116.75156      116.7504       196.699      
     90800   1005.0386      199.29696     -81977.869      2678679.7      116.7155       116.71434      196.63825    
     90900   997.11454      9.0536578     -81997.793      2680167.4      116.73711      116.73595      196.67464    
     91000   1002.5946     -183.31676     -81947.177      2681262.5      116.75301      116.75185      196.70143    
     91100   1004.7632      19.085751     -81963.085      2679160.8      116.72249      116.72133      196.65002    
     91200   998.81038     -42.986971     -81999.842      2679825.9      116.73215      116.73099      196.66629    
     91300   1000.0962      59.664921     -82022.037      2678684.7      116.71558      116.71442      196.63837    
     91400   994.01187      59.922545     -82074.953      2678499.1      116.71288      116.71172      196.63383    
     91500   999.48706      85.182281     -82046.766      2677897.7      116.70415      116.70299      196.61911    
     91600   1000.1451     -74.753654     -82002.932      2679348        116.72521      116.72405      196.6546     
     91700   1003.1258     -39.019173     -81975.574      2678712.7      116.71598      116.71482      196.63905    
     91800   1000.7246      15.433853     -82034.069      2676883.1      116.68941      116.68825      196.59427    
     91900   1001.9352     -55.438861     -82033.254      2677069.4      116.69211      116.69095      196.59884    
     92000   998.11621     -153.17904     -82032.581      2678291.5      116.70987      116.70871      196.62875    
     92100   1006.5549     -1.5227996     -82012.742      2676639        116.68586      116.6847       196.5883     
     92200   996.19826      94.88528      -82062.188      2676946.7      116.69033      116.68917      196.59583    
     92300   998.35302      89.60709      -82040.188      2677725.9      116.70165      116.70049      196.61491    
     92400   997.99386     -43.192428     -82019.715      2679132.8      116.72209      116.72093      196.64933    
     92500   999.61355      195.92098     -82051.485      2676887.1      116.68946      116.6883       196.59437    
     92600   995.34777      193.09533     -82055.56       2677329.5      116.69589      116.69473      196.6052     
     92700   998.62202     -202.62086     -82032.873      2679769.6      116.73133      116.73017      196.66491    
     92800   1001.5818      152.52306     -82027.464      2677580.3      116.69954      116.69838      196.61134    
     92900   999.54377      60.654791     -82016.696      2678860.2      116.71813      116.71697      196.64266    
     93000   994.75446     -48.902592     -82020.811      2679720.9      116.73063      116.72947      196.66372    
     93100   1002.8716      218.56003     -82008.618      2677087.6      116.69238      116.69122      196.59928    
     93200   998.10143     -235.63376     -82067.86       2679063.6      116.72108      116.71992      196.64764    
     93300   992.3587      -41.272558     -82129.854      2677387.7      116.69674      116.69558      196.60663    
     93400   1003.721       304.96363     -82049.239      2675451.8      116.6686       116.66744      196.55923    
     93500   998.19307     -380.28139     -82048.877      2680850        116.74702      116.74586      196.69134    
     93600   1006.3927     -11.615149     -82005.553      2677906.5      116.70427      116.70311      196.61932    
     93700   1001.5882      29.353579     -82012.821      2677642.1      116.70043      116.69927      196.61285    
     93800   997.26803     -151.8549      -82064.608      2678129.4      116.70751      116.70635      196.62478    
     93900   1002.5105      39.151363     -82066.847      2675983        116.67632      116.67516      196.57224    
     94000   996.28786      1.6888405     -82084.788      2676073.5      116.67764      116.67648      196.57445    
     94100   1005.6722     -93.635133     -82002.74       2676677.5      116.68642      116.68526      196.58924    
     94200   995.72179      80.731137     -82059.011      2675796.4      116.67361      116.67245      196.56767    
     94300   997.65661      191.80506     -82058.171      2674629.2      116.65665      116.65549      196.53908    
     94400   992.94882     -105.58369     -82119.23       2675433.1      116.66833      116.66717      196.55877    
     94500   1004.6269     -204.37798     -82036.635      2675594.9      116.67068      116.66952      196.56273    
     94600   1000.1185      161.07475     -82061.493      2673173.8      116.63548      116.63432      196.50343    
     94700   998.06698     -87.79055      -82030.134      2675817        116.67391      116.67275      196.56817    
     94800   1002.0324      43.997079     -82018.71       2674236.5      116.65094      116.64978      196.52946    
     94900   1000.8493     -13.296246     -82048.213      2673562.9      116.64114      116.63998      196.51296    
     95000   996.05494     -52.780013     -82144.212      2672048.1      116.61911      116.61795      196.47584    
     95100   998.64714      18.557685     -82098.665      2672096.2      116.61981      116.61865      196.47702    
     95200   996.12526      137.06492     -82052.877      2672376.4      116.62388      116.62273      196.48389    
     95300   1005.0619     -2.7431498     -81998.068      2672747.1      116.62928      116.62812      196.49297    
     95400   995.98913     -2.5795904     -82093.97       2671144        116.60595      116.60479      196.45368    
     95500   996.32363      80.168373     -82062.111      2670778.4      116.60063      116.59947      196.44472    
     95600   999.72486      147.68032     -82003.746      2670499.2      116.59657      116.59541      196.43787    
     95700   993.24484      45.190853     -82066.491      2670069.4      116.59032      116.58916      196.42733    
     95800   1001.8213     -4.0792563     -82071.248      2668373.3      116.56562      116.56446      196.38573    
     95900   997.24612     -29.217645     -82067.16       2668928.3      116.5737       116.57254      196.39934    
     96000   999.8144       165.3566      -82038.882      2667866.2      116.55824      116.55708      196.37329    
     96100   999.64868     -31.501714     -82041.273      2669072.7      116.57581      116.57465      196.40289    
     96200   994.59857     -23.283668     -82118.215      2668684.7      116.57016      116.569        196.39337    
     96300   997.5075       206.798       -82066.282      2667840.3      116.55786      116.5567       196.37265    
     96400   997.6036       55.142419     -82047.034      2668832.1      116.5723       116.57115      196.39699    
     96500   991.64946      3.9314266     -82121.207      2668325.9      116.56493      116.56377      196.38457    
     96600   1003.1112      147.02649     -82104.245      2665993.8      116.53096      116.52981      196.32734    
     96700   996.7376      -198.90771     -82097.413      2668718        116.57064      116.56948      196.39418    
     96800   1004.7285     -72.014469     -82039.847      2668204.7      116.56317      116.56201      196.38159    
     96900   996.24376      227.17656     -82102.598      2666046.6      116.53173      116.53058      196.32863    
     97000   995.26244      44.151437     -82130.471      2666682        116.54099      116.53983      196.34423    
     97100   1007.6786      116.61322     -82033.507      2666228.6      116.53438      116.53323      196.3331     
     97200   998.39106     -134.58775     -82045.296      2668828.2      116.57225      116.57109      196.39689    
     97300   1001.6076     -95.966098     -82067.139      2667544.6      116.55355      116.5524       196.3654     
     97400   1001.3017      65.447146     -82099.629      2666036.1      116.53158      116.53042      196.32838    
     97500   996.76394     -37.085133     -82135.206      2666407.5      116.53699      116.53583      196.33749    
     97600   999.74627      103.48962     -82116.226      2665255.6      116.52021      116.51905      196.30921    
     97700   1006.9669     -40.341732     -82011.179      2667120.3      116.54737      116.54622      196.35499    
     97800   1000.0152     -112.28797     -82003.266      2669020        116.57504      116.57388      196.40159    
     97900   1005.5111      70.762215     -82013.596      2666764.2      116.54219      116.54103      196.34625    
     98000   1000.8431     -55.865038     -82104.409      2666241.4      116.53457      116.53341      196.33342    
     98100   1003.77       -134.03088     -82079.347      2666759        116.54211      116.54095      196.34612    
     98200   994.48597     -59.740879     -82124.792      2666767.1      116.54223      116.54107      196.34632    
     98300   1007.6334      168.27061     -82084.782      2664298.5      116.50626      116.5051       196.28571    
     98400   998.72243     -390.58854     -82084.978      2668649.4      116.56964      116.56848      196.3925     
     98500   1005.2407     -12.24571      -82066.33       2665736.8      116.52722      116.52606      196.32103    
     98600   1001.552       72.040554     -82093.539      2665121        116.51825      116.51709      196.30591    
     98700   993.55402     -223.78195     -82151.856      2666843        116.54333      116.54218      196.34818    
     98800   1006.8553      89.542109     -82093.547      2664170.6      116.50439      116.50324      196.28257    
     98900   992.99955      20.887732     -82124.659      2665781.9      116.52788      116.52672      196.32214    
     99000   1004.2964     -17.480502     -82054.5        2665763.1      116.5276       116.52644      196.32168    
     99100   999.18333     -137.81913     -82096.811      2666140.6      116.5331       116.53194      196.33094    
     99200   1006.905       143.15716     -82006.919      2664886.9      116.51483      116.51368      196.30016    
     99300   995.71709      38.431396     -82073.278      2665495.6      116.5237       116.52255      196.31511    
     99400   998.18399     -132.56298     -82079.761      2666414.8      116.5371       116.53594      196.33767    
     99500   1000.8         228.0365      -82052.595      2664509.6      116.50933      116.50818      196.2909     
     99600   995.76042      99.025364     -82091.656      2665017.3      116.51673      116.51558      196.30336    
     99700   1001.2889     -102.90654     -82086.862      2665393.4      116.52222      116.52106      196.3126     
     99800   997.4682       17.784446     -82157.344      2663574.6      116.4957       116.49455      196.26794    
     99900   994.12513      116.25163     -82171.853      2662765.4      116.48391      116.48275      196.24806    
    100000   1001.3078      116.75965     -82094.578      2663196.2      116.49019      116.48903      196.25864    
    100100   1004.351      -213.01115     -82024.183      2666570.5      116.53937      116.53821      196.34149    
    100200   1003.0773     -140.3085      -82037.774      2665942.7      116.53022      116.52906      196.32608    
    100300   1004.3611      76.50011      -82073.03       2663959        116.50131      116.50015      196.27738    
    100400   1001.3079     -162.91913     -82093.269      2665799.1      116.52813      116.52697      196.32256    
    100500   997.81488      2.2114757     -82085.389      2665311.2      116.52102      116.51986      196.31058    
    100600   1001.7983      176.61644     -82070.854      2663723        116.49787      116.49671      196.27158    
    100700   998.32357     -71.123339     -82124.644      2664679.3      116.51181      116.51065      196.29507    
    100800   999.59061     -63.590893     -82092.744      2665399.1      116.5223       116.52114      196.31274    
    100900   997.1391       129.35345     -82086.494      2664748.6      116.51282      116.51166      196.29677    
    101000   1006.7324      21.903259     -82038.372      2664963        116.51594      116.51479      196.30203    
    101100   1000.0885     -219.68722     -82106.79       2665853.1      116.52891      116.52776      196.32388    
    101200   1003.1721      16.87069      -82058.995      2665033.9      116.51698      116.51582      196.30377    
    101300   1002.9869      31.927084     -82020.415      2665745.4      116.52734      116.52619      196.32124    
    101400   1003.7707     -67.055665     -82069.255      2665443.1      116.52294      116.52178      196.31382    
    101500   997.95869     -33.070282     -82119.3        2664847.5      116.51426      116.5131       196.2992     
    101600   1001.2687      107.33058     -82123.355      2663602.5      116.49611      116.49495      196.26862    
    101700   1001.0842     -132.0521      -82120.389      2664972.3      116.51608      116.51492      196.30226    
    101800   998.07606     -79.183192     -82085.339      2665337.3      116.5214       116.52024      196.31122    
    101900   1009.8779      185.93362     -82004.691      2663649.5      116.4968       116.49564      196.26978    
    102000   998.32039     -96.677192     -82073.24       2665601.1      116.52524      116.52408      196.3177     
    102100   1001.8425     -79.503418     -82096.281      2665011.7      116.51665      116.51549      196.30323    
    102200   1001.4285      10.300352     -82135.914      2663909        116.50058      116.49942      196.27615    
    102300   1005.9741     -187.43289     -82084.796      2665475.6      116.52341      116.52225      196.31462    
    102400   1004.2782     -113.13285     -82132.277      2664174.2      116.50445      116.50329      196.28266    
    102500   997.22861     -31.074997     -82154.417      2663439.2      116.49373      116.49257      196.26461    
    102600   1000.4795     -71.588135     -82052.727      2664825.8      116.51394      116.51279      196.29866    
    102700   1002.5534      68.753334     -82044.472      2663967.1      116.50143      116.50027      196.27758    
    102800   999.43693      29.082294     -82119.192      2663366.1      116.49267      116.49151      196.26281    
    102900   1001.0177     -192.69307     -82106.077      2665512.6      116.52395      116.52279      196.31552    
    103000   999.17731      81.833066     -82148.423      2663989.4      116.50175      116.50059      196.27812    
    103100   1001.8566     -21.401048     -82074.315      2666310.8      116.53558      116.53442      196.33512    
    103200   1008.3749     -193.69892     -81996.1        2668292.6      116.56445      116.56329      196.38375    
    103300   1002.2299      72.248411     -82051.436      2666193.2      116.53387      116.53271      196.33223    
    103400   1000.2914      86.810208     -82107.88       2665024.9      116.51684      116.51569      196.30355    
    103500   994.23587     -168.21737     -82177.713      2665767        116.52766      116.5265       196.32177    
    103600   1002.321       272.22731     -82158.755      2662796.6      116.48436      116.4832       196.24883    
    103700   999.78294     -140.75441     -82124.301      2666742.6      116.54187      116.54071      196.34572    
    103800   998.56701     -210.79318     -82102.085      2667846.1      116.55795      116.55679      196.3728     
    103900   1009.674       331.39838     -82031.347      2664371.7      116.50733      116.50617      196.28751    
    104000   999.27947     -205.06417     -82104.641      2667446.8      116.55213      116.55097      196.363      
    104100   993.93935     -12.337603     -82116.13       2666415.3      116.5371       116.53595      196.33768    
    104200   1000.4466      412.96643     -82051.959      2664320.9      116.50658      116.50543      196.28627    
    104300   1002.1488     -241.00468     -82061.693      2667516        116.55314      116.55198      196.3647     
    104400   999.04891     -129.488       -82155.537      2664783.2      116.51332      116.51216      196.29762    
    104500   1001.7115      222.44368     -82101.819      2663260.2      116.49112      116.48996      196.26021    
    104600   999.57855     -156.48466     -82071.154      2666603.1      116.53984      116.53868      196.34229    
    104700   996.37861      34.354932     -82146.704      2664819.4      116.51385      116.51269      196.29851    
    104800   999.07786      218.4241      -82164.266      2663390.8      116.49302      116.49187      196.26342    
    104900   990.68516     -84.676765     -82183.281      2666101        116.53252      116.53137      196.32997    
    105000   1000.0786      29.858291     -82076.947      2666432.3      116.53735      116.53619      196.3381     
    105100   1001.9262      87.316886     -82097.204      2665597.5      116.52519      116.52403      196.31761    
    105200   1004.4909     -256.14434     -82132.64       2666927.6      116.54457      116.54341      196.35026    
    105300   994.29278      129.85483     -82199.389      2664928.6      116.51544      116.51428      196.30119    
    105400   1000.2671      207.82873     -82150.599      2665124.3      116.51829      116.51713      196.30599    
    105500   998.11058     -288.0125      -82127.739      2669231.4      116.57812      116.57696      196.40678    
    105600   999.60849      122.65422     -82077.24       2667745.4      116.55648      116.55532      196.37032    
    105700   1001.9979      130.36935     -82131.099      2665872.6      116.5292       116.52804      196.32436    
    105800   996.4794      -75.326852     -82207.706      2665652.1      116.52598      116.52483      196.31895    
    105900   997.77276      38.34119      -82126.775      2665933.5      116.53008      116.52893      196.32586    
    106000   999.31255      130.55215     -82097.983      2665616.4      116.52546      116.52431      196.31807    
    106100   1006.7319     -91.35172      -82018.238      2667798.6      116.55725      116.5561       196.37163    
    106200   1001.2167     -104.86379     -82087.834      2667627.6      116.55476      116.55361      196.36744    
    106300   1000.6731      103.27004     -82138.444      2665940.7      116.53019      116.52903      196.32603    
    106400   993.74785      76.923995     -82191.643      2666381.2      116.53661      116.53545      196.33685    
    106500   1002.5568     -29.609728     -82179.479      2666910.3      116.54432      116.54316      196.34983    
    106600   999.39967     -45.323174     -82148.889      2668373.9      116.56563      116.56447      196.38575    
    106700   1000.2356      82.389617     -82095.764      2668421.8      116.56633      116.56517      196.38692    
    106800   1003.9147     -51.895579     -82109.013      2667874.4      116.55836      116.5572       196.37349    
    106900   994.18789     -86.220158     -82188.797      2667072.1      116.54667      116.54551      196.3538     
    107000   1001.9502      183.11667     -82123.57       2665117.7      116.5182       116.51704      196.30583    
    107100   997.24573      151.74532     -82174.768      2665106.9      116.51804      116.51688      196.30556    
    107200   999.79246     -94.626754     -82125.009      2667654.8      116.55516      116.554        196.3681     
    107300   998.80918      75.603292     -82160.631      2666518.1      116.5386       116.53744      196.34021    
    107400   997.74215      90.636226     -82161.548      2666830.9      116.54316      116.542        196.34788    
    107500   1005.0836     -130.67278     -82099.069      2668464.8      116.56696      116.5658       196.38798    
    107600   997.26        -103.98773     -82162.934      2668077.3      116.56131      116.56015      196.37847    
    107700   1005.0231      111.66895     -82121.321      2666902.5      116.5442       116.54304      196.34964    
    107800   996.68843     -38.114556     -82175.197      2668113.5      116.56184      116.56068      196.37936    
    107900   1000.7448     -100.00589     -82151.788      2668675.8      116.57003      116.56887      196.39315    
    108000   992.00236      126.59542     -82181.121      2667588.3      116.55419      116.55303      196.36647    
    108100   1002.8992      218.355       -82167.756      2665561.6      116.52467      116.52351      196.31673    
    108200   995.25198     -268.4519      -82184.573      2669140.1      116.57679      116.57563      196.40454    
    108300   1004.6805      27.130833     -82125.368      2667406.5      116.55154      116.55038      196.36201    
    108400   996.27233      187.98977     -82163.604      2666455.3      116.53769      116.53653      196.33867    
    108500   993.02354     -98.900091     -82225.094      2667148.5      116.54779      116.54663      196.35568    
    108600   998.03337      176.83097     -82182.692      2665628.7      116.52564      116.52449      196.31838    
    108700   997.18402      8.2412078     -82102.942      2668479.5      116.56717      116.56601      196.38834    
    108800   999.76224      24.711801     -82096.671      2668213        116.56329      116.56213      196.3818     
    108900   997.51213      134.83495     -82156.811      2666901.1      116.54418      116.54302      196.34961    
    109000   999.89507     -60.526014     -82142.202      2668376.5      116.56567      116.56451      196.38581    
    109100   1003.0409     -71.480672     -82118.034      2668293.1      116.56445      116.5633       196.38376    
    109200   997.58975      166.80313     -82166.974      2666833.6      116.5432       116.54204      196.34795    
    109300   999.0257       15.646352     -82155.233      2668249.8      116.56382      116.56267      196.3827     
    109400   999.93132     -69.12998      -82104.995      2670086        116.59056      116.5894       196.42774    
    109500   995.3726       163.24164     -82147.759      2668289.8      116.56441      116.56325      196.38368    
    109600   1001.0564      157.34753     -82177.211      2666985.8      116.54542      116.54426      196.35168    
    109700   996.91809     -132.28915     -82213.975      2668444.3      116.56666      116.5655       196.38747    
    109800   1002.2448      1.3697255     -82149.928      2667929.3      116.55916      116.558        196.37484    
    109900   1003.7944      43.816417     -82094.949      2668556.9      116.5683       116.56714      196.39023    
    110000   1000.1767     -74.32518      -82135.295      2669219.8      116.57795      116.57679      196.40649    
    110100   999.9279       97.321529     -82174.587      2667619.5      116.55465      116.55349      196.36724    
    110200   993.7343       18.628462     -82215.809      2667625        116.55473      116.55357      196.36737    
    110300   999.99232      10.040741     -82151.326      2667570.3      116.55393      116.55277      196.36603    
    110400   995.95501      185.60881     -82179.218      2666188        116.53379      116.53263      196.3321     
    110500   991.71275      42.819122     -82211.162      2666845.2      116.54337      116.54221      196.34823    
    110600   999.99571      8.8036254     -82143.998      2667248.4      116.54924      116.54808      196.35813    
    110700   997.12985      179.72845     -82201.358      2665487.2      116.52358      116.52242      196.3149     
    110800   994.79028      26.689871     -82197.062      2667048.9      116.54633      116.54518      196.35323    
    110900   1002.5776      37.697179     -82178.35       2666382        116.53662      116.53546      196.33687    
    111000   999.29649     -159.43155     -82166.071      2668035.2      116.5607       116.55954      196.37743    
    111100   997.57502      91.565141     -82131.829      2667193.5      116.54844      116.54728      196.35678    
    111200   1003.0532      263.32112     -82122.991      2665145.8      116.51861      116.51745      196.30652    
    111300   998.09758     -475.72406     -82180.064      2669226.9      116.57805      116.57689      196.40667    
    111400   997.19527      174.80397     -82275.901      2663653.2      116.49685      116.49569      196.26987    
    111500   1000.6015      89.162004     -82211.57       2665467.9      116.5233       116.52214      196.31443    
    111600   997.52414     -201.12987     -82186.288      2668331        116.56501      116.56385      196.38469    
    111700   1005.2222      128.16912     -82133.661      2666020.7      116.53136      116.5302       196.328      
    111800   998.66017     -128.16503     -82162.39       2667489.9      116.55276      116.5516       196.36406    
    111900   999.93513     -19.535674     -82135.602      2666615.1      116.54002      116.53886      196.34259    
    112000   1012.2517     -20.944682     -82058.203      2666513.5      116.53854      116.53738      196.34009    
    112100   1003.6462     -261.30626     -82129.398      2668023.3      116.56053      116.55937      196.37714    
    112200   1002.3796      15.236915     -82183.539      2665349.3      116.52157      116.52041      196.31152    
    112300   992.59222      68.735201     -82249.706      2664638.8      116.51122      116.51006      196.29407    
    112400   999.2293      -17.313184     -82171.425      2665829.1      116.52856      116.52741      196.32329    
    112500   998.30593      180.18608     -82155.651      2665188.7      116.51923      116.51807      196.30757    
    112600   1005.8047     -132.24236     -82085.976      2667370.6      116.55102      116.54986      196.36113    
    112700   1003.0933     -53.419077     -82178.761      2665052        116.51724      116.51608      196.30422    
    112800   996.42987      130.91437     -82213.222      2663899.8      116.50045      116.49929      196.27592    
    112900   1001.9419      29.425015     -82143.656      2665152.7      116.51871      116.51755      196.30669    
    113000   993.88707      28.683002     -82133.325      2666431.7      116.53734      116.53619      196.33809    
    113100   1004.7153      181.87565     -82091.722      2664694.2      116.51202      116.51087      196.29543    
    113200   997.00807     -61.958736     -82167.942      2665517.5      116.52402      116.52287      196.31564    
    113300   1001.9128     -24.419977     -82202.309      2663679.2      116.49723      116.49607      196.2705     
    113400   1000.1793     -114.65404     -82176.964      2664383.7      116.5075       116.50634      196.28781    
    113500   999.86143      20.790712     -82192.097      2663159.1      116.48965      116.48849      196.25773    
    113600   1005.7226     -7.743658      -82165.778      2662519.6      116.48032      116.47916      196.24202    
    113700   995.59843     -201.28106     -82207.092      2663739.4      116.49811      116.49695      196.27198    
    113800   1001.3237      120.19196     -82119.365      2662542.1      116.48065      116.47949      196.24257    
    113900   1002.8252     -110.57912     -82120.041      2663624.8      116.49644      116.49528      196.26917    
    114000   997.34437     -43.943162     -82206.775      2661791.1      116.4697       116.46854      196.22412    
    114100   999.39189     -16.849763     -82152.595      2662084.4      116.47398      116.47282      196.23133    
    114200   1001.3544      13.653682     -82163.499      2661413.3      116.46419      116.46303      196.21484    
    114300   999.58252      87.812919     -82227.413      2660011.8      116.44374      116.44258      196.18039    
    114400   1000.4028     -176.95369     -82190.353      2662910.1      116.48602      116.48486      196.25161    
    114500   1000.5333      43.094602     -82176.806      2661667.3      116.46789      116.46673      196.22108    
    114600   1003.7575      5.4631768     -82149.588      2662203        116.4757       116.47455      196.23424    
    114700   999.27329     -272.54635     -82176.858      2663985.1      116.50169      116.50053      196.27802    
    114800   1000.9874      236.93712     -82267.043      2658316.8      116.419        116.41784      196.13871    
    114900   998.97443     -18.345129     -82246.527      2659957.9      116.44295      116.4418       196.17906    
    115000   999.67248     -217.64945     -82188.634      2661570.5      116.46648      116.46532      196.2187     
    115100   1003.0844      49.010514     -82108.136      2660979.2      116.45786      116.4567       196.20417    
    115200   1005.4241     -19.03378      -82091.157      2661613.7      116.46711      116.46595      196.21976    
    115300   1000.0295     -261.64163     -82180.391      2662151.1      116.47495      116.47379      196.23296    
    115400   1008.1037     -30.544013     -82170.767      2659793.6      116.44056      116.4394       196.17502    
    115500   997.95309     -97.178115     -82197.057      2661034.2      116.45866      116.4575       196.20552    
    115600   999.91272     -18.740717     -82181.891      2660714        116.45399      116.45283      196.19765    
    115700   1005.5938      179.13428     -82155.067      2659038.8      116.42954      116.42838      196.15646    
    115800   993.92955     -249.76991     -82134.296      2663280.2      116.49141      116.49025      196.2607     
    115900   1006.1176      209.72678     -82091.576      2659483.7      116.43603      116.43488      196.1674     
    116000   994.84079      219.09924     -82156.816      2659174.7      116.43152      116.43037      196.1598     
    116100   998.49583     -223.1653      -82180.733      2660506.5      116.45096      116.4498       196.19255    
    116200   1001.8268      155.72755     -82215.035      2657263.9      116.40363      116.40247      196.11281    
    116300   1001.523      -15.285547     -82176.465      2659121.1      116.43074      116.42958      196.15849    
    116400   995.27912     -182.08507     -82169.873      2661116.3      116.45985      116.4587       196.20754    
    116500   1000.077       420.49019     -82172.276      2656590        116.39379      116.39263      196.09623    
    116600   998.45656     -77.722985     -82194.174      2658926.6      116.4279       116.42675      196.1537     
    116700   998.0375      -161.27393     -82193.574      2658842.9      116.42668      116.42552      196.15165    
    116800   1004.0349      219.96673     -82115.308      2657104.9      116.40131      116.40015      196.1089     
    116900   993.82814      33.248071     -82166.267      2658387.9      116.42004      116.41888      196.14046    
    117000   1001.0541     -107.37217     -82125.97       2659438.4      116.43537      116.43422      196.16629    
    117100   1000.7477      234.74377     -82150.643      2657140.6      116.40183      116.40067      196.10978    
    117200   995.87746      26.826765     -82200.535      2657566.7      116.40805      116.40689      196.12026    
    117300   1003.6167     -88.791802     -82194.975      2656856.5      116.39768      116.39652      196.10279    
    117400   997.59117     -7.065025      -82223.068      2656475.1      116.39211      116.39095      196.0934     
    117500   999.01645      57.882685     -82184.172      2656852.6      116.39762      116.39647      196.10269    
    117600   1003.5463      54.587346     -82124.665      2657597.5      116.4085       116.40734      196.12102    
    117700   996.9386       0.73118985    -82133.689      2658448.9      116.42093      116.41977      196.14196    
    117800   1000.829       127.36587     -82188.29       2655799.6      116.38224      116.38109      196.07678    
    117900   997.43453     -35.308404     -82220.784      2656134.7      116.38714      116.38598      196.08503    
    118000   1005.2648     -59.648973     -82176.986      2655512.6      116.37805      116.37689      196.06972    
    118100   994.57538     -24.286151     -82253.371      2654437.7      116.36235      116.36119      196.04326    
    118200   1003.3233     -2.1388737     -82197.409      2654131.7      116.35788      116.35672      196.03572    
    118300   993.07364      100.00022     -82243.773      2653798.5      116.35301      116.35185      196.02752    
    118400   1001.9137      10.071277     -82186.509      2654299.4      116.36033      116.35917      196.03985    
    118500   993.27213      3.7019331     -82276.82       2653005.5      116.34141      116.34026      196.00799    
    118600   999.57673     -83.425983     -82220.581      2653355.7      116.34653      116.34538      196.01662    
    118700   1002.762       67.586574     -82181.237      2652438.8      116.33313      116.33197      195.99404    
    118800   993.28059     -10.869848     -82245.936      2652416.8      116.33281      116.33165      195.99349    
    118900   1001.59        42.971088     -82212.909      2651502.4      116.31944      116.31828      195.97097    
    119000   1005.3434     -37.011536     -82145.844      2652669.2      116.3365       116.33534      195.99971    
    119100   1001.1576     -100.95529     -82198.363      2652378.8      116.33225      116.3311       195.99256    
    119200   997.61804      13.09788      -82195.763      2652345.3      116.33176      116.33061      195.99173    
    119300   1002.6891      184.75379     -82172.437      2650918.3      116.3109       116.30974      195.95658    
    119400   998.05377     -184.12654     -82241.668      2651959.4      116.32612      116.32497      195.98223    
    119500   1000.1161     -32.573008     -82221.966      2650843.3      116.3098       116.30864      195.95473    
    119600   1007.7097      126.55029     -82142.242      2649821.3      116.29485      116.2937       195.92954    
    119700   995.94813     -204.39143     -82195.123      2651786        116.32359      116.32243      195.97795    
    119800   1001.2861      151.7514      -82174.958      2649263.5      116.28669      116.28554      195.9158     
    119900   1003.6978      88.007624     -82114.849      2650667.1      116.30722      116.30607      195.95039    
    120000   997.44988     -234.24395     -82176.739      2652456.5      116.33339      116.33223      195.99447    
    120100   1001.1292      208.739       -82221.447      2648456.6      116.27488      116.27373      195.8959     
    120200   997.26583     -27.488121     -82213.625      2650149        116.29964      116.29849      195.93762    
    120300   997.89055     -61.480252     -82208.47       2650061.8      116.29837      116.29721      195.93547    
    120400   999.67161      168.57116     -82218.579      2647690.4      116.26367      116.26251      195.87701    
    120500   995.79382     -39.809166     -82241.89       2648408.4      116.27418      116.27302      195.89471    
    120600   1004.0688     -23.139054     -82173.075      2648575.3      116.27662      116.27546      195.89883    
    120700   996.87454      44.735681     -82214.882      2648092.5      116.26956      116.2684       195.88693    
    120800   996.91962     -18.456456     -82255.199      2647816        116.26551      116.26435      195.88011    
    120900   1002.2582     -11.35024      -82190.075      2648321.8      116.27291      116.27175      195.89258    
    121000   995.27817      23.515302     -82266.901      2647581.4      116.26207      116.26092      195.87432    
    121033   999.28071     -0.2338975     -82278.291      2646960.8      116.25299      116.25183      195.85902    
Loop time of 458.227 on 32 procs for 50000 steps with 55296 atoms

Performance: 9.428 ns/day, 2.546 hours/ns, 109.116 timesteps/s, 6.034 Matom-step/s
99.9% CPU use with 32 MPI tasks x 1 OpenMP threads

MPI task timing breakdown:
Section |  min time  |  avg time  |  max time  |%varavg| %total
---------------------------------------------------------------
Pair    | 24.575     | 200.64     | 409.27     | 995.6 | 43.79
Bond    | 0.0021072  | 0.0049304  | 0.0088626  |   2.4 |  0.00
Neigh   | 0.4286     | 3.6017     | 7.4327     | 136.4 |  0.79
Comm    | 11.119     | 224.18     | 413.74     | 919.0 | 48.92
Output  | 1.2834     | 3.1713     | 5.0852     |  62.9 |  0.69
Modify  | 9.96       | 24.459     | 47.928     | 261.0 |  5.34
Other   |            | 2.17       |            |       |  0.47

Nlocal:           1728 ave        3292 max         311 min
Histogram: 8 1 7 0 0 0 7 1 0 8
Nghost:        4727.03 ave        6652 max        2801 min
Histogram: 15 1 0 0 0 0 0 0 0 16
Neighs:         294956 ave      604683 max       33710 min
Histogram: 8 4 4 0 0 1 6 1 1 7

Total # of neighbors = 9438586
Ave neighs/atom = 170.69202
Ave special neighs/atom = 0
Neighbor list builds = 445
Dangerous builds = 0
Generated 0 of 0 mixed pair_coeff terms from geometric mixing rule
Setting up Verlet run ...
  Unit style    : metal
  Current step  : 121033
  Time step     : 0.0005
Per MPI rank memory allocation (min/avg/max) = 7.611 | 8.986 | 10.95 Mbytes
   Step          Temp          Press          TotEng         Volume           Lx             Ly             Lz      
    121033   1000           1.8406654     -82273.15       2646960.8      116.25299      116.25183      195.85902    
    121100   997.26127      59.520839     -82268.287      2647213.7      116.25669      116.25554      195.86525    
    121200   996.23251      2.8178035     -82228.7        2648647.1      116.27767      116.27652      195.9006     
    121300   1001.339      -100.11056     -82180.427      2649478        116.28983      116.28867      195.92108    
    121400   995.89299      70.376979     -82207.506      2648539.8      116.2761       116.27495      195.89795    
    121500   1002.8387     -158.10755     -82252.622      2648182.9      116.27088      116.26972      195.88915    
    121600   992.22089      206.98371     -82323.484      2645906.2      116.23755      116.23639      195.833      
    121700   988.61872     -95.015583     -82384.755      2646796.6      116.25059      116.24943      195.85497    
    121800   988.44026     -132.79263     -82437.605      2645785.1      116.23578      116.23462      195.83001    
    121900   986.01321      225.55615     -82495.859      2642651.8      116.18987      116.18872      195.75268    
    122000   982.53082     -64.896066     -82551.019      2643746.6      116.20592      116.20476      195.77971    
    122100   978.75429     -110.87582     -82586.322      2643932.1      116.20863      116.20748      195.78428    
    122200   976.42173      173.93141     -82616.903      2641962.4      116.17977      116.17861      195.73565    
    122300   976.88956     -87.680353     -82659.913      2642541.5      116.18825      116.1871       195.74995    
    122400   970.25319      26.536852     -82688.501      2642238.6      116.18382      116.18266      195.74247    
    122500   974.70718     -4.1115854     -82686.878      2642065.5      116.18128      116.18012      195.7382     
    122600   966.8269       77.579197     -82721.22       2642282.2      116.18445      116.1833       195.74355    
    122700   969.27117     -147.62172     -82742.416      2643289.3      116.19921      116.19806      195.76842    
    122800   965.14151      115.40697     -82760.413      2642117.9      116.18205      116.18089      195.7395     
    122900   968.96653     -59.955841     -82776.341      2642681.6      116.19031      116.18915      195.75341    
    123000   962.12688     -51.833457     -82824.492      2642623.1      116.18945      116.1883       195.75197    
    123100   963.01742      75.798761     -82864.062      2640958.1      116.16504      116.16389      195.71085    
    123200   959.35463      64.832605     -82917.172      2640496.8      116.15828      116.15713      195.69945    
    123300   951.86695     -47.228091     -82949.016      2641555.3      116.1738       116.17264      195.7256     
    123400   959.3504      -149.09094     -82958.249      2641139.2      116.1677       116.16655      195.71532    
    123500   951.02898      282.32049     -83022.261      2638269.6      116.12561      116.12446      195.64442    
    123600   952.53132     -168.46809     -83051.794      2640047.1      116.15169      116.15053      195.68834    
    123700   949.88323     -100.44849     -83105.455      2638722.1      116.13225      116.1311       195.6556     
    123800   945.73552      307.70874     -83140.056      2635966        116.0918       116.09065      195.58746    
    123900   941.96677     -198.95405     -83174.116      2638857.1      116.13423      116.13308      195.65894    
    124000   939.93905     -47.325341     -83198.314      2637844.3      116.11937      116.11822      195.6339     
    124100   946.00984      134.81556     -83215.344      2635654.6      116.08723      116.08608      195.57975    
    124200   936.84058      0.91679394    -83277.948      2636466.2      116.09915      116.09799      195.59983    
    124300   937.54799     -147.96324     -83288.591      2637155.1      116.10926      116.1081       195.61686    
    124400   936.0509       102.66729     -83332.388      2635170.9      116.08013      116.07898      195.56779    
    124500   932.18834      66.627795     -83387.726      2634864.7      116.07563      116.07448      195.56021    
    124600   930.48707     -159.56806     -83424.593      2635753.5      116.08868      116.08753      195.5822     
    124700   926.04448      120.52612     -83457.568      2634131.5      116.06487      116.06371      195.54207    
    124800   926.32216     -7.2379447     -83481.229      2634583.3      116.0715       116.07035      195.55325    
    124900   926.0914      -148.77057     -83534.7        2634626.9      116.07214      116.07099      195.55433    
    125000   922.39038      254.94215     -83569.98       2632233.6      116.03698      116.03583      195.4951     
    125100   917.95324     -71.949201     -83601.564      2634293        116.06724      116.06609      195.54607    
    125200   918.47394     -240.01004     -83627.042      2634771        116.07426      116.07311      195.5579     
    125300   918.9618       242.41496     -83673.822      2630781.2      116.01564      116.01449      195.45914    
    125400   915.48063      40.75004      -83720.315      2631441.6      116.02535      116.02419      195.47549    
    125500   909.22714     -192.74829     -83746.025      2633251.9      116.05195      116.05079      195.5203     
    125600   909.78006      109.60267     -83756.338      2631355.7      116.02408      116.02293      195.47336    
    125700   909.93447      56.594562     -83797.47       2631162.2      116.02124      116.02009      195.46857    
    125800   905.05525     -108.72677     -83843.158      2632157.6      116.03587      116.03471      195.49322    
    125900   906.65362      23.584046     -83870.782      2630872.5      116.01698      116.01583      195.4614     
    126000   899.27475      109.81306     -83907.974      2630756.7      116.01528      116.01413      195.45853    
    126100   899.58592     -177.16244     -83930.916      2632202.5      116.03653      116.03538      195.49433    
    126200   898.15828      78.213626     -83959.069      2630244.9      116.00775      116.0066       195.44585    
    126300   899.45113      70.69875      -83990.131      2629577.2      115.99794      115.99678      195.42931    
    126400   899.30434     -152.43227     -84021.849      2630384.1      116.0098       116.00865      195.4493     
    126500   890.3444       153.08099     -84081.663      2628715.6      115.98527      115.98411      195.40797    
    126600   895.09837     -48.959702     -84117.821      2629037.5      115.99         115.98885      195.41594    
    126700   886.83953     -33.713722     -84174.676      2629320.6      115.99416      115.99301      195.42296    
    126800   886.81963      58.307285     -84207.714      2628605.1      115.98364      115.98249      195.40523    
    126900   882.26998      7.3730401     -84245.46       2629232.1      115.99286      115.99171      195.42076    
    127000   880.46952     -87.970639     -84266.393      2630117.4      116.00588      116.00473      195.44269    
    127100   879.54145      48.590809     -84282.164      2629476.1      115.99645      115.9953       195.42681    
    127200   878.43376     -37.660142     -84346.981      2629190.7      115.99225      115.9911       195.41974    
    127300   876.43416      68.037643     -84385.207      2628401.3      115.98064      115.97949      195.40018    
    127400   870.79332      58.265731     -84419.695      2628979.1      115.98914      115.98799      195.4145     
    127500   872.79737     -192.49564     -84437.066      2630468.3      116.01104      116.00989      195.45139    
    127600   869.40825      126.56575     -84479.913      2628550.2      115.98283      115.98168      195.40387    
    127700   867.18572      122.36305     -84517.728      2628446.6      115.98131      115.98016      195.4013     
    127800   867.57605     -251.5849      -84536.489      2630500.2      116.01151      116.01036      195.45218    
    127900   864.91665      103.81752     -84569.294      2628329.9      115.97959      115.97844      195.39841    
    128000   863.69987      118.42303     -84610.781      2627722.8      115.97066      115.96951      195.38336    
    128100   860.594       -169.42113     -84638.863      2629479.2      115.9965       115.99534      195.42689    
    128200   860.22172      23.519414     -84676.059      2627953.6      115.97406      115.97291      195.38908    
    128300   854.11131      163.6035      -84712.145      2627204        115.96303      115.96188      195.3705     
    128400   855.544       -273.7081      -84727.483      2629330.7      115.99431      115.99316      195.42321    
    128500   851.67299      155.85038     -84771.659      2626549.4      115.9534       115.95225      195.35428    
    128600   852.96924      111.74962     -84800.413      2626291.7      115.94961      115.94845      195.34789    
    128700   848.28112     -223.29119     -84837.388      2628350.2      115.97989      115.97874      195.39891    
    128800   844.66096      140.84481     -84869.703      2626330.5      115.95018      115.94903      195.34885    
    128900   845.45251      29.238249     -84895.252      2626611.4      115.95431      115.95316      195.35581    
    129000   841.9796      -170.23994     -84933.17       2627687.4      115.97014      115.96899      195.38249    
    129100   842.51273      120.19633     -84960.499      2625453.9      115.93728      115.93612      195.32711    
    129200   841.27727      38.500014     -85002.091      2625281.8      115.93474      115.93359      195.32285    
    129300   837.2284      -157.94859     -85043.547      2626032.1      115.94579      115.94463      195.34145    
    129400   831.95256      155.65806     -85078.127      2624216.9      115.91907      115.91791      195.29643    
    129500   831.64867     -36.908988     -85095.705      2625093.2      115.93197      115.93081      195.31817    
    129600   830.49912     -152.12981     -85130.919      2625254.9      115.93435      115.93319      195.32218    
    129700   829.06848      217.45688     -85175.174      2622571.5      115.89483      115.89368      195.25561    
    129800   828.06364     -66.092949     -85200.749      2623900.8      115.91441      115.91326      195.28859    
    129900   824.29638     -169.16224     -85243.268      2624046.1      115.91655      115.9154       195.2922     
    130000   824.8702       223.83268     -85284.329      2620815.7      115.86896      115.86781      195.21202    
    130100   820.62684     -25.637768     -85325.944      2621918.6      115.88521      115.88406      195.2394     
    130200   818.33903     -205.53149     -85358.979      2622520.4      115.89408      115.89293      195.25434    
    130300   814.40203      273.20263     -85394.571      2619468.2      115.8491       115.84795      195.17856    
    130400   816.07776     -113.9329      -85420.556      2620957.7      115.87106      115.8699       195.21555    
    130500   809.63003     -60.794135     -85451.074      2620973.2      115.87128      115.87013      195.21593    
    130600   814.85948      82.179963     -85467.53       2619309.3      115.84676      115.84561      195.17461    
    130700   811.87164     -19.167114     -85516.92       2619278.1      115.8463       115.84515      195.17384    
    130800   805.56792     -11.799577     -85556.319      2619245.7      115.84582      115.84467      195.17303    
    130900   804.83297      8.5849206     -85594.345      2618778        115.83893      115.83777      195.16142    
    131000   802.40601      42.700719     -85637.293      2618463.9      115.83429      115.83314      195.15361    
    131100   800.03152     -17.452866     -85672.341      2618921.1      115.84104      115.83988      195.16497    
    131200   797.31668      4.1170088     -85705.634      2618934.1      115.84123      115.84008      195.16529    
    131300   796.13399     -15.589884     -85725.306      2619072.7      115.84327      115.84212      195.16874    
    131400   794.80669     -39.346337     -85755.718      2618866.9      115.84024      115.83908      195.16362    
    131500   795.36663      68.167025     -85790.746      2617643.6      115.8222       115.82105      195.13323    
    131600   787.13651      83.246652     -85820.278      2618303.6      115.83193      115.83078      195.14963    
    131700   790.77821     -259.56938     -85841.706      2619761        115.85342      115.85227      195.18583    
    131800   786.76337      214.88042     -85887.007      2616848.9      115.81047      115.80932      195.11348    
    131900   786.93259     -5.1276473     -85926.297      2617309.8      115.81727      115.81612      195.12494    
    132000   781.81456     -144.65008     -85966.665      2617832.7      115.82499      115.82383      195.13793    
    132100   781.03061      152.7385      -85998.403      2615607.8      115.79216      115.79101      195.08263    
    132200   778.03887      8.6655016     -86037.982      2616230.4      115.80135      115.8002       195.09811    
    132300   774.44091     -124.3502      -86067.333      2617090.7      115.81404      115.81289      195.11949    
    132400   778.65677      57.328813     -86090.328      2615232.8      115.78663      115.78548      195.07331    
    132500   775.15017      82.131014     -86138.701      2614718.7      115.77904      115.77789      195.06053    
    132600   768.54907     -91.308295     -86174.699      2616065.6      115.79892      115.79777      195.09401    
    132700   770.29079     -67.101385     -86206.549      2615256.8      115.78698      115.78583      195.07391    
    132800   765.04077      216.70806     -86248.621      2613527.6      115.76146      115.76031      195.0309     
    132900   763.61354     -139.89711     -86280.539      2615330.2      115.78807      115.78692      195.07573    
    133000   761.42215     -39.512454     -86302.74       2614701.5      115.77879      115.77764      195.0601     
    133100   762.59471      135.32093     -86329.877      2613139.7      115.75573      115.75458      195.02125    
    133200   762.00408     -110.02711     -86374.02       2613798.6      115.76546      115.76431      195.03764    
    133300   755.36143      61.094678     -86414.343      2612826.9      115.75111      115.74996      195.01347    
    133400   752.56612      39.217357     -86441.524      2612834.3      115.75122      115.75007      195.01366    
    133500   752.69186     -145.34995     -86468.493      2613423.2      115.75992      115.75877      195.0283     
    133600   749.73982      156.69062     -86508.006      2611403.5      115.73009      115.72894      194.97805    
    133700   750.9948      -48.591708     -86533.31       2612044.7      115.73956      115.73841      194.99401    
    133800   746.2756      -101.49714     -86570.502      2612200.6      115.74186      115.74071      194.99789    
    133900   747.77297      129.32755     -86609.466      2609862.2      115.70731      115.70616      194.93968    
    134000   740.18142      70.708013     -86650.623      2610087.7      115.71065      115.7095       194.9453     
    134100   738.20857     -240.30185     -86662.322      2611563.2      115.73245      115.7313       194.98202    
    134200   743.09021      106.24198     -86685.104      2608260.6      115.68364      115.68249      194.8998     
    134300   736.7417       225.43        -86739.342      2607058.8      115.66587      115.66472      194.86986    
    134400   734.07764     -324.30699     -86771.899      2609724.4      115.70528      115.70413      194.93625    
    134500   731.84547      116.52294     -86803.478      2606868.6      115.66306      115.66191      194.86512    
    134600   730.47895      185.1367      -86841.707      2606013.1      115.65041      115.64926      194.8438     
    134700   726.8313      -233.18548     -86871.828      2608477.4      115.68685      115.6857       194.9052     
    134800   726.04035      52.944453     -86887.861      2606803.8      115.6621       115.66095      194.86351    
    134900   726.30893      120.07569     -86924.056      2605901.5      115.64875      115.6476       194.84102    
    135000   723.5852      -142.72161     -86958.728      2607313.6      115.66964      115.66849      194.87621    
    135100   719.70216      62.012186     -86992.936      2606304.9      115.65472      115.65357      194.85107    
    135200   718.17838      47.814996     -87023.494      2606293.1      115.65455      115.6534       194.85078    
    135300   717.02441     -130.27483     -87056.555      2607108        115.6666       115.66545      194.87109    
    135400   713.641        116.1086      -87087.664      2605709.3      115.64591      115.64476      194.83623    
    135500   715.72215     -45.12518      -87116.887      2606007.7      115.65033      115.64918      194.84367    
    135600   711.20396     -23.753431     -87157.884      2605829.5      115.64769      115.64654      194.83923    
    135700   712.00266      31.073624     -87203.315      2604558.2      115.62888      115.62773      194.80754    
    135800   702.70079      94.926254     -87239.914      2604600        115.6295       115.62835      194.80858    
    135900   704.16751     -197.49404     -87256.562      2605701.5      115.6458       115.64465      194.83604    
    136000   701.00876      142.9121      -87283.229      2603540.9      115.61382      115.61267      194.78217    
    136100   699.34064      11.291151     -87309.893      2603967.6      115.62014      115.61899      194.79281    
    136200   702.03007     -209.13154     -87341.057      2604344.5      115.62572      115.62457      194.80221    
    136300   697.74959      274.52605     -87381.535      2601389.7      115.58197      115.58082      194.72851    
    136400   695.25612     -72.504984     -87420.116      2602901.2      115.60435      115.6032       194.76622    
    136500   691.04386     -181.41901     -87452.108      2603451.9      115.6125       115.61136      194.77995    
    136600   692.90765      215.93053     -87490.574      2600344.4      115.56649      115.56534      194.70242    
    136700   687.30409      37.331998     -87529.525      2601394.7      115.58204      115.5809       194.72863    
    136800   686.47451     -268.70721     -87557.264      2602798.9      115.60284      115.60169      194.76366    
    136900   686.52171      207.04924     -87596.317      2599338.5      115.55158      115.55044      194.67731    
    137000   681.96467      55.370994     -87633.364      2599954.5      115.56071      115.55956      194.69269    
    137100   677.41877     -199.46897     -87656.668      2601508.6      115.58373      115.58258      194.73148    
    137200   680.87786      90.649482     -87670.348      2599263        115.55047      115.54932      194.67543    
    137300   675.50151      84.643286     -87713.027      2599199.7      115.54953      115.54838      194.67385    
    137400   676.29729     -183.00573     -87739.522      2600154.9      115.56368      115.56253      194.69769    
    137500   674.01238      125.84496     -87779.511      2598017.7      115.53201      115.53086      194.64434    
    137600   671.74709      20.695388     -87820.843      2598193.3      115.53461      115.53346      194.64872    
    137700   669.32862     -124.33817     -87858.853      2598672.6      115.54172      115.54057      194.66069    
    137800   666.21111      106.63263     -87899.172      2597012.7      115.51711      115.51596      194.61923    
    137900   662.37079      29.755534     -87931.971      2597227.7      115.5203       115.51915      194.6246     
    138000   663.47798     -190.61508     -87948.06       2597774.9      115.52841      115.52726      194.63827    
    138100   660.92493      151.26844     -87991.341      2595044.5      115.48792      115.48677      194.57006    
    138200   660.71129      1.1935195     -88018.399      2595085.3      115.48853      115.48738      194.57107    
    138300   656.14115     -124.83869     -88060.691      2595313.4      115.49191      115.49076      194.57678    
    138400   654.24618      155.29399     -88094.165      2593240.6      115.46115      115.46001      194.52496    
    138500   648.77283      10.229014     -88118.512      2594327.2      115.47728      115.47613      194.55213    
    138600   650.74635     -176.1739      -88127.423      2595106.9      115.48885      115.4877       194.57161    
    138700   647.231        174.0862      -88160.845      2593044.1      115.45824      115.45709      194.52005    
    138800   648.89456     -69.370258     -88192.233      2593804        115.46952      115.46837      194.53905    
    138900   647.57554     -66.292166     -88226.166      2593409.8      115.46367      115.46252      194.52919    
    139000   643.35193      136.30741     -88273.195      2591922.7      115.44159      115.44044      194.492      
    139100   639.80768     -73.462397     -88309.795      2592795.2      115.45454      115.4534       194.51382    
    139200   638.4844      -64.499027     -88343.924      2592241.8      115.44633      115.44518      194.49998    
    139300   638.38465      114.75145     -88381.244      2590569.9      115.42151      115.42036      194.45816    
    139400   633.40529     -20.122143     -88419.464      2591234.6      115.43138      115.43023      194.47479    
    139500   632.92537     -112.98305     -88446.118      2591281.3      115.43207      115.43092      194.47596    
    139600   629.14818      137.99982     -88479.972      2589476.7      115.40527      115.40412      194.4308     
    139700   626.52903     -28.994434     -88499.401      2590137.6      115.41508      115.41394      194.44734    
    139800   627.98495     -132.48273     -88519.627      2590018.2      115.41331      115.41216      194.44435    
    139900   625.64272      176.50384     -88554.683      2587876.5      115.38149      115.38034      194.39074    
    140000   623.2404      -58.85948      -88583.161      2588911.7      115.39687      115.39573      194.41666    
    140100   620.75822     -83.066693     -88619.694      2588707        115.39383      115.39268      194.41154    
    140200   621.23634      104.13262     -88652.91       2587021.9      115.36879      115.36764      194.36934    
    140300   616.90065     -24.20176      -88695.866      2587438.6      115.37498      115.37383      194.37978    
    140400   615.20216     -78.47624      -88730.802      2587197.4      115.3714       115.37025      194.37374    
    140500   613.45867      108.50255     -88770.476      2585631.6      115.34812      115.34697      194.33452    
    140600   609.66955      5.2021117     -88807.939      2586061        115.3545       115.35336      194.34528    
    140700   609.51995     -101.76735     -88842.795      2586171.2      115.35614      115.35499      194.34804    
    140800   604.54074      140.46768     -88872.046      2584938.2      115.33781      115.33666      194.31715    
    140900   602.55077     -83.62584      -88894.727      2585842.9      115.35126      115.35011      194.33981    
    141000   601.29691     -48.759806     -88912.018      2585154.1      115.34102      115.33987      194.32255    
    141100   599.7415       104.93228     -88930.104      2583812.5      115.32106      115.31991      194.28893    
    141200   598.33006     -92.08425      -88964.362      2584200.7      115.32683      115.32569      194.29866    
    141300   599.53137     -2.7822897     -88988.748      2582940        115.30808      115.30693      194.26706    
    141400   598.22176      104.40357     -89035.071      2581536.3      115.28719      115.28604      194.23186    
    141500   591.00834     -41.10457      -89077.514      2582328.3      115.29897      115.29783      194.25172    
    141600   590.58445     -114.72951     -89106.59       2582073.5      115.29518      115.29404      194.24534    
    141700   588.73263      171.94616     -89146.027      2579865.6      115.26231      115.26116      194.18995    
    141800   587.75091     -91.699569     -89179.941      2580603.5      115.2733       115.27215      194.20847    
    141900   585.10891     -54.090184     -89220.089      2579845.7      115.26201      115.26087      194.18945    
    142000   581.59014      202.29487     -89256.578      2578176.9      115.23716      115.23601      194.14758    
    142100   578.7515      -162.31112     -89278.478      2580044.3      115.26497      115.26383      194.19444    
    142200   577.92028     -36.996656     -89301.565      2578958.4      115.2488       115.24765      194.16719    
    142300   578.65171      154.98312     -89332.918      2577213.4      115.2228       115.22165      194.12339    
    142400   574.08531     -80.846365     -89367.051      2578386.2      115.24027      115.23913      194.15283    
    142500   573.3358      -61.446061     -89392.875      2577845.7      115.23222      115.23108      194.13926    
    142600   569.88801      123.78867     -89425.493      2576575.7      115.21329      115.21215      194.10737    
    142700   568.47572     -89.68123      -89455.195      2577247.5      115.22331      115.22216      194.12424    
    142800   568.86798     -54.229546     -89483.565      2576288.4      115.20901      115.20787      194.10016    
    142900   565.67063      142.25953     -89524.223      2574697.8      115.1853       115.18415      194.0602     
    143000   564.26003     -75.349639     -89560.954      2575453.8      115.19657      115.19543      194.0792     
    143100   560.58406     -34.966629     -89598.297      2575090.8      115.19116      115.19001      194.07008    
    143200   559.53837      76.882018     -89637.234      2573988.9      115.17472      115.17358      194.04239    
    143300   556.39247     -28.182973     -89671.748      2574382.6      115.1806       115.17945      194.05229    
    143400   553.79578     -59.00383      -89702.385      2574302.5      115.1794       115.17826      194.05027    
    143500   551.48891      84.741854     -89730.884      2573264.3      115.16392      115.16277      194.02418    
    143600   549.71086     -52.48997      -89753.143      2573735.1      115.17094      115.16979      194.03602    
    143700   549.04467     -47.359973     -89782.156      2573070.6      115.16103      115.15988      194.01931    
    143800   545.96172      137.73253     -89808.228      2571822.9      115.14241      115.14126      193.98795    
    143900   545.70332     -116.55757     -89834.087      2572774        115.1566       115.15546      194.01186    
    144000   542.34162      39.049058     -89866.226      2571814        115.14228      115.14113      193.98772    
    144100   541.68154      35.173354     -89891.626      2571556.8      115.13844      115.13729      193.98126    
    144200   539.36017     -63.437022     -89929.925      2571794.1      115.14198      115.14084      193.98723    
    144300   537.4775       60.025758     -89960.727      2570925.8      115.12902      115.12788      193.96539    
    144400   532.35309      4.4887924     -89992.744      2571355.4      115.13543      115.13429      193.97619    
    144500   534.5542      -99.103934     -90020.58       2571300.1      115.13461      115.13346      193.9748     
    144600   531.97504      132.96076     -90058.628      2569780.7      115.11192      115.11078      193.93659    
    144700   528.53953     -53.723764     -90094.374      2570581.6      115.12388      115.12274      193.95673    
    144800   527.44297     -81.581266     -90128.348      2570243.5      115.11883      115.11769      193.94823    
    144900   523.9532       151.05975     -90161.583      2568757.2      115.09664      115.0955       193.91084    
    145000   521.77535     -81.793779     -90191.991      2569737.1      115.11127      115.11013      193.93549    
    145100   519.29075     -23.223479     -90217.698      2569245.4      115.10393      115.10279      193.92312    
    145200   519.02191      79.339407     -90242.44       2568274.2      115.08943      115.08828      193.89868    
    145300   519.3576      -81.944079     -90277.958      2568434.7      115.09182      115.09068      193.90272    
    145400   513.29424      66.282259     -90308.674      2567649        115.08009      115.07894      193.88295    
    145500   513.93852     -54.944649     -90337.939      2567659.7      115.08025      115.0791       193.88322    
    145600   510.36979      46.165816     -90373.949      2566906.5      115.06899      115.06785      193.86426    
    145700   508.58784     -12.704639     -90403.403      2566824.6      115.06777      115.06662      193.8622     
    145800   505.93194     -43.676223     -90431.589      2566625        115.06479      115.06364      193.85717    
    145900   508.53684      6.9939286     -90466.49       2565310.6      115.04514      115.044        193.82407    
    146000   501.08847      127.11542     -90504.449      2564686.2      115.0358       115.03466      193.80835    
    146100   500.43293     -191.88436     -90529.506      2565890.6      115.05381      115.05267      193.83868    
    146200   500.18369      57.492618     -90563.839      2563742        115.02169      115.02054      193.78456    
    146300   495.81168      175.37352     -90600.413      2562843.1      115.00824      115.0071       193.76191    
    146400   493.60165     -230.34191     -90626.312      2564779.7      115.0372       115.03606      193.8107     
    146500   494.00365      52.474445     -90655.219      2562664.8      115.00557      115.00443      193.75742    
    146600   490.28972      199.60235     -90691.183      2561679.8      114.99084      114.98969      193.73259    
    146700   487.27385     -236.41634     -90715.745      2564000.3      115.02555      115.02441      193.79107    
    146800   487.71999      22.645639     -90739.808      2562168.8      114.99816      114.99701      193.74492    
    146900   486.87426      177.94956     -90778.312      2560718.5      114.97645      114.97531      193.70835    
    147000   482.83403     -157.01638     -90813.448      2562381.3      115.00133      115.00019      193.75027    
    147100   478.40938      30.87559      -90842.422      2561469.1      114.98769      114.98654      193.72728    
    147200   479.76635      56.309141     -90865.543      2560848.8      114.9784       114.97726      193.71164    
    147300   478.06739     -102.34868     -90900.994      2561267.5      114.98467      114.98353      193.72219    
    147400   475.40144      76.485039     -90939.694      2559898        114.96417      114.96303      193.68766    
    147500   473.16384      1.527469      -90971.551      2559895.9      114.96414      114.963        193.68761    
    147600   469.84865     -73.917786     -91006.484      2559953.3      114.965        114.96386      193.68905    
    147700   470.19598      60.692294     -91037.928      2558557.6      114.9441       114.94296      193.65385    
    147800   466.02136      25.869964     -91075.951      2558341.7      114.94087      114.93973      193.6484     
    147900   463.90232     -93.33552      -91100.967      2558465.1      114.94272      114.94157      193.65152    
    148000   460.62056      73.067483     -91125.556      2557237.3      114.92433      114.92319      193.62053    
    148100   463.87182     -48.487307     -91153.765      2556850.6      114.91853      114.91739      193.61077    
    148200   456.05682      89.756436     -91186.04       2556383.7      114.91154      114.9104       193.59899    
    148300   457.40539     -107.27439     -91205.603      2556927        114.91968      114.91854      193.6127     
    148400   455.83453      31.984538     -91240.289      2555725.4      114.90167      114.90053      193.58237    
    148500   455.11859      45.73756      -91275.708      2555193.1      114.8937       114.89255      193.56893    
    148600   450.64772     -46.343736     -91314.56       2555606.2      114.89989      114.89875      193.57936    
    148700   449.70022     -2.555205      -91350.49       2554937.1      114.88986      114.88872      193.56246    
    148800   446.61223      52.946679     -91387.424      2554362.2      114.88124      114.8801       193.54794    
    148900   443.14308     -70.200579     -91415.15       2554767.6      114.88732      114.88618      193.55818    
    149000   441.35787      23.615245     -91441.77       2553876.5      114.87396      114.87282      193.53567    
    149100   441.75248      11.881628     -91466.607      2553379.5      114.86651      114.86536      193.52312    
    149200   439.82685     -49.268027     -91501.692      2553192.5      114.8637       114.86256      193.51839    
    149300   436.53372      74.881945     -91536.592      2552221.4      114.84914      114.848        193.49386    
    149400   433.97811     -42.761324     -91563.844      2552540.9      114.85393      114.85279      193.50193    
    149500   431.13413     -9.4052653     -91591.605      2552145.8      114.848        114.84686      193.49195    
    149600   432.16607      20.697617     -91615.645      2551456.6      114.83766      114.83652      193.47453    
    149700   428.9977      -0.37667887    -91649.695      2551340.5      114.83592      114.83478      193.47159    
    149800   426.4002      -5.1506669     -91677.607      2551246.1      114.83451      114.83337      193.46921    
    149900   425.54227     -23.566696     -91708.098      2550931.5      114.82979      114.82864      193.46125    
    150000   424.20841      38.16599      -91743.785      2550147.8      114.81803      114.81688      193.44144    
    150100   420.69755      5.8291824     -91776.463      2550206.2      114.8189       114.81776      193.44292    
    150200   419.49587     -63.715092     -91810.014      2550234.6      114.81933      114.81819      193.44363    
    150300   416.01003      90.405475     -91841.808      2549394.6      114.80672      114.80558      193.42239    
    150400   413.44537     -40.318155     -91869.614      2550044.3      114.81647      114.81533      193.43882    
    150500   414.24955     -62.539716     -91899.081      2549680.6      114.81101      114.80987      193.42963    
    150600   410.15917      137.40044     -91932.018      2548513.7      114.7935       114.79236      193.40011    
    150700   408.39861     -111.15842     -91960.986      2549449.3      114.80754      114.8064       193.42378    
    150800   407.44839      2.093221      -91991.98       2548400.8      114.7918       114.79066      193.39726    
    150900   403.85773      132.19748     -92021.908      2547615.6      114.78001      114.77887      193.37739    
    151000   403.16865     -176.38912     -92047.743      2548945.5      114.79998      114.79884      193.41103    
    151100   400.38991      80.995439     -92077.8        2547435.2      114.7773       114.77616      193.37283    
    151200   400.17195      62.401358     -92109.82       2547024.2      114.77113      114.76999      193.36243    
    151300   396.09997     -115.21174     -92140.588      2547823.8      114.78314      114.782        193.38266    
    151400   395.05379      47.309232     -92170.584      2546509.5      114.7634       114.76226      193.3494     
    151500   392.71169      78.564008     -92202.648      2546015        114.75597      114.75483      193.33689    
    151600   391.11451     -147.53481     -92230.704      2546813.4      114.76796      114.76682      193.35709    
    151700   388.83362      98.015203     -92263.565      2545193.8      114.74363      114.74249      193.3161     
    151800   387.24455      35.094706     -92293.786      2545182.1      114.74345      114.74231      193.3158     
    151900   384.11328     -116.07824     -92325.378      2545776.4      114.75238      114.75124      193.33085    
    152000   383.16026      77.797724     -92351.495      2544366.8      114.7312       114.73006      193.29516    
    152100   382.0484       9.95872       -92386.929      2544134.9      114.72771      114.72657      193.28928    
    152200   378.89097     -64.60901      -92418.91       2544146.1      114.72788      114.72674      193.28957    
    152300   376.22578      58.39773      -92452.022      2543021.5      114.71097      114.70983      193.26108    
    152400   374.13912      23.512417     -92478.627      2542933.3      114.70965      114.70851      193.25885    
    152500   373.22333     -93.874305     -92507.659      2543194.6      114.71358      114.71244      193.26547    
    152600   372.0041       87.602712     -92540.203      2541909.3      114.69425      114.69311      193.23291    
    152700   368.30578      27.389266     -92574.2        2542219.5      114.69891      114.69777      193.24076    
    152800   365.80424     -106.88177     -92602.344      2542814.5      114.70786      114.70672      193.25584    
    152900   363.67887      88.648288     -92626.467      2541640.4      114.6902       114.68906      193.22609    
    153000   364.13311     -39.550645     -92652.68       2541825.8      114.69299      114.69185      193.23079    
    153100   361.09773     -3.9052548     -92687.494      2541442.3      114.68722      114.68608      193.22107    
    153200   360.51989      20.864785     -92718.814      2540821.5      114.67789      114.67675      193.20534    
    153300   356.36164      2.9390028     -92755.7        2540700.7      114.67607      114.67493      193.20227    
    153400   355.76873     -45.641293     -92784.494      2540462        114.67248      114.67134      193.19622    
    153500   351.9266       85.035315     -92820.961      2539568        114.65902      114.65788      193.17356    
    153600   351.13142     -57.500994     -92846.826      2539916.5      114.66427      114.66313      193.18239    
    153700   348.99873     -43.348152     -92879.772      2539353.5      114.6558       114.65466      193.16812    
    153800   347.40545      112.91471     -92913.339      2537940.3      114.63452      114.63338      193.13228    
    153900   342.99263     -50.307842     -92943.372      2538571.3      114.64402      114.64288      193.14828    
    154000   343.85925     -100.6789      -92968.557      2538065.8      114.63641      114.63527      193.13546    
    154100   340.2821       205.776       -93002.768      2536059.8      114.6062       114.60506      193.08457    
    154200   338.28209     -119.44327     -93029.894      2537365.1      114.62586      114.62472      193.11769    
    154300   335.563       -54.274801     -93054.053      2536867        114.61836      114.61722      193.10505    
    154400   335.71789      155.06985     -93081.314      2535268.8      114.59429      114.59315      193.06449    
    154500   332.46459     -78.985588     -93111.631      2536399.5      114.61132      114.61018      193.09319    
    154600   332.03061     -78.57827      -93142.156      2535962.6      114.60474      114.6036       193.0821     
    154700   329.31804      180.48228     -93175.28       2534353.4      114.58049      114.57935      193.04125    
    154800   328.56711     -155.15151     -93209.337      2535572.6      114.59886      114.59772      193.0722     
    154900   324.3272       50.701675     -93245.461      2534378.5      114.58087      114.57973      193.04189    
    155000   322.19225      94.043616     -93274.669      2533920.6      114.57397      114.57283      193.03026    
    155100   320.56412     -186.8681      -93300.596      2535029.7      114.59068      114.58954      193.05842    
    155200   318.1619       128.05399     -93332.479      2532977.6      114.55976      114.55862      193.00631    
    155300   317.8048       24.337094     -93359.135      2532969.5      114.55963      114.55849      193.00611    
    155400   315.34243     -147.89476     -93393.108      2533453.9      114.56693      114.5658       193.01841    
    155500   311.76676      182.66283     -93423.917      2531549.3      114.53822      114.53708      192.97003    
    155600   312.06426     -101.59719     -93452.614      2532382.6      114.55078      114.54965      192.9912     
    155700   308.4047      -30.523507     -93485.516      2531719.5      114.54079      114.53965      192.97435    
    155800   306.48311      134.91045     -93515.441      2530491.3      114.52226      114.52112      192.94314    
    155900   303.94076     -116.27007     -93542.007      2531512.7      114.53767      114.53653      192.9691     
    156000   303.18808     -12.577587     -93569.709      2530517.8      114.52266      114.52152      192.94382    
    156100   301.74805      127.67638     -93602.805      2529259.6      114.50368      114.50254      192.91183    
    156200   297.9431      -112.42072     -93631.678      2530277.6      114.51904      114.5179       192.93771    
    156300   297.31678     -12.192583     -93661.196      2529238.2      114.50335      114.50222      192.91129    
    156400   293.82372      157.31529     -93690.352      2528219.8      114.48798      114.48684      192.88539    
    156500   293.31282     -177.33707     -93717.215      2529596.2      114.50875      114.50762      192.92039    
    156600   290.09267      88.965345     -93746.736      2528220.3      114.48799      114.48685      192.88541    
    156700   290.0782       33.926413     -93775.693      2528132        114.48666      114.48552      192.88316    
    156800   287.45825     -106.48076     -93808.238      2528691.8      114.49511      114.49397      192.8974     
    156900   285.62752      72.127473     -93841.463      2527436.2      114.47615      114.47502      192.86546    
    157000   283.34399      24.580724     -93875.331      2527392.2      114.47549      114.47435      192.86434    
    157100   281.14916     -85.112978     -93907.113      2527725.7      114.48052      114.47939      192.87283    
    157200   277.94069      92.140073     -93938.306      2526782.8      114.46629      114.46515      192.84884    
    157300   276.74263     -35.867614     -93965.334      2527253        114.47339      114.47225      192.8608     
    157400   275.43899     -56.791879     -93995.914      2527085.2      114.47085      114.46972      192.85653    
    157500   273.08368      105.24846     -94029.152      2526008.7      114.4546       114.45346      192.82915    
    157600   270.31772     -58.248339     -94058.124      2526705.6      114.46512      114.46398      192.84688    
    157700   268.24741     -40.517509     -94086.21       2526378.5      114.46018      114.45904      192.83856    
    157800   266.73547      98.720364     -94114.372      2525379.1      114.44509      114.44395      192.81312    
    157900   265.56592     -85.455967     -94143.073      2525989.5      114.45431      114.45317      192.82866    
    158000   263.08824      23.427175     -94176.628      2525189.1      114.44222      114.44108      192.80829    
    158100   260.59354      60.235967     -94205.289      2524846.4      114.43704      114.4359       192.79957    
    158200   258.23925     -100.21716     -94233.004      2525468.4      114.44644      114.4453       192.8154     
    158300   256.08188      54.839736     -94258.999      2524440        114.4309       114.42976      192.78922    
    158400   255.91536     -4.7534924     -94287.638      2524141.3      114.42638      114.42525      192.78162    
    158500   253.09342     -33.540519     -94319.586      2523840.9      114.42185      114.42071      192.77397    
    158600   250.94108      31.846323     -94349.431      2523010.2      114.40929      114.40815      192.75282    
    158700   248.77583     -1.0886142     -94379.611      2522717.9      114.40487      114.40374      192.74537    
    158800   247.56228     -29.808558     -94408.975      2522381.6      114.39979      114.39865      192.73681    
    158900   245.03662      51.062149     -94441.877      2521625.3      114.38835      114.38722      192.71754    
    159000   242.6805      -6.0655331     -94470.979      2521752.2      114.39027      114.38914      192.72078    
    159100   241.27846     -45.741209     -94500.271      2521750.2      114.39024      114.38911      192.72072    
    159200   239.33804      55.921811     -94531.938      2521013.4      114.3791       114.37796      192.70195    
    159300   237.1794      -11.59966      -94563.397      2521196.1      114.38186      114.38073      192.70661    
    159400   233.78875     -11.926606     -94593.236      2521226.8      114.38233      114.38119      192.70739    
    159500   232.54667      13.219211     -94617.547      2520989.6      114.37874      114.3776       192.70135    
    159600   231.72821     -14.29247      -94647.39       2520900.5      114.37739      114.37626      192.69908    
    159700   228.64852      15.043905     -94677.86       2520672.2      114.37394      114.3728       192.69326    
    159800   227.66876     -22.27139      -94708.628      2520517.4      114.3716       114.37046      192.68931    
    159900   224.47635      28.449529     -94738.456      2520157.9      114.36616      114.36502      192.68015    
    160000   223.45937     -34.27912      -94768.133      2520141        114.36591      114.36477      192.67972    
    160100   221.12253      35.679002     -94800.251      2519573.4      114.35732      114.35618      192.66526    
    160200   218.57114     -10.883802     -94828.488      2519638.2      114.3583       114.35716      192.66691    
    160300   216.33099     -24.559986     -94857.483      2519447.9      114.35542      114.35428      192.66206    
    160400   215.40802      31.292862     -94884.143      2518814.4      114.34583      114.3447       192.64591    
    160500   213.31934     -4.3932367     -94916.163      2518745.6      114.34479      114.34366      192.64415    
    160600   210.75267      3.7801709     -94946.113      2518616.3      114.34284      114.3417       192.64086    
    160700   208.83592     -13.407478     -94974.42       2518517.7      114.34134      114.34021      192.63834    
    160800   206.82425      5.5579177     -95003.801      2518147.7      114.33575      114.33461      192.62891    
    160900   205.0321       4.4555649     -95032.637      2517827.1      114.33089      114.32976      192.62073    
    161000   203.19041     -10.821145     -95062.531      2517571.8      114.32703      114.32589      192.61422    
    161100   201.07151      16.89095      -95092.564      2517143        114.32054      114.3194       192.60329    
    161200   198.66039      5.5650861     -95121.752      2517020.3      114.31868      114.31754      192.60016    
    161300   197.08187     -26.315459     -95149.892      2516935        114.31739      114.31625      192.59798    
    161400   195.38009      27.101076     -95180.928      2516349.9      114.30853      114.30739      192.58306    
    161500   192.88035      3.623616      -95209.794      2516282.2      114.3075       114.30637      192.58133    
    161600   191.36482     -41.850663     -95239.369      2516227.7      114.30668      114.30554      192.57994    
    161700   189.09487      56.151089     -95270.269      2515480        114.29536      114.29422      192.56086    
    161800   186.90967     -32.098944     -95299.614      2515591.2      114.29704      114.2959       192.5637     
    161900   184.5656      -11.914709     -95328.53       2515157.9      114.29048      114.28934      192.55264    
    162000   183.27475      42.944073     -95356.155      2514514.2      114.28073      114.27959      192.53622    
    162100   181.24235     -31.095523     -95386.741      2514566.4      114.28152      114.28038      192.53755    
    162200   179.622        1.6750288     -95416.986      2514072.5      114.27403      114.2729       192.52494    
    162300   177.12204      33.836698     -95447.89       2513669.1      114.26792      114.26679      192.51464    
    162400   175.27578     -40.899844     -95478.182      2513725.5      114.26878      114.26764      192.51608    
    162500   172.46509      26.781624     -95507.132      2513168        114.26033      114.25919      192.50185    
    162600   171.34569      4.0885716     -95535.819      2512920.2      114.25657      114.25544      192.49552    
    162700   168.456       -8.868268      -95563.627      2512877.2      114.25592      114.25478      192.49442    
    162800   167.9992      -6.2685652     -95593.41       2512508.1      114.25033      114.24919      192.485      
    162900   164.44145      50.987215     -95623.016      2512221.7      114.24598      114.24485      192.47768    
    163000   163.04843     -78.973885     -95650.322      2512630.6      114.25218      114.25105      192.48813    
    163100   161.43102      38.914762     -95679.972      2511698.6      114.23805      114.23692      192.46432    
    163200   159.38245      41.869903     -95710.475      2511395.9      114.23347      114.23233      192.45659    
    163300   157.1352      -80.227025     -95739.419      2511787.2      114.2394       114.23826      192.46659    
    163400   155.15974      52.715835     -95769.3        2510840        114.22504      114.2239       192.44239    
    163500   153.47937      17.349353     -95798.74       2510685.3      114.22269      114.22155      192.43844    
    163600   151.20478     -73.492023     -95828.544      2510805        114.22451      114.22337      192.4415     
    163700   149.31321      72.073942     -95858.768      2509691.7      114.20762      114.20649      192.41305    
    163800   147.52913     -8.3662729     -95888.654      2509708.8      114.20788      114.20675      192.41349    
    163900   144.4429      -39.590031     -95917.785      2509664.8      114.20721      114.20608      192.41236    
    164000   143.27341      53.601021     -95945.123      2508876.5      114.19525      114.19412      192.39221    
    164100   141.26131     -8.0378888     -95974.091      2509009        114.19726      114.19613      192.3956     
    164200   139.38074     -30.942439     -96003.49       2508989.6      114.19697      114.19584      192.39511    
    164300   136.96808      53.234687     -96032.225      2508487.3      114.18935      114.18821      192.38227    
    164400   135.67592     -49.42917      -96060.698      2508729.4      114.19302      114.19189      192.38846    
    164500   133.38232      9.7201737     -96090.904      2508185.6      114.18477      114.18364      192.37455    
    164600   131.08568      44.474057     -96120.267      2507759        114.1783       114.17716      192.36365    
    164700   129.17057     -62.140799     -96148.063      2508002.9      114.182        114.18086      192.36988    
    164800   127.39798      29.624398     -96176.791      2507226        114.17021      114.16907      192.35002    
    164900   125.454        38.290138     -96206.343      2506880.5      114.16496      114.16383      192.34118    
    165000   123.74157     -75.841701     -96235.44       2507104.7      114.16837      114.16723      192.34691    
    165100   121.04021      68.228621     -96265.436      2506142.2      114.15375      114.15262      192.32229    
    165200   119.78012     -2.2607645     -96293.55       2506177.2      114.15429      114.15315      192.32319    
    165300   117.55167     -50.107721     -96323.413      2506237.7      114.1552       114.15407      192.32474    
    165400   115.75368      69.769033     -96353.526      2505413.9      114.14269      114.14156      192.30366    
    165500   113.30526     -25.735287     -96382.645      2505703.7      114.1471       114.14596      192.31108    
    165600   110.9553      -35.900545     -96410.288      2505585.8      114.14531      114.14417      192.30806    
    165700   109.37008      68.560608     -96437.829      2504801.1      114.13339      114.13225      192.28798    
    165800   108.01141     -49.78598      -96466.33       2505052.8      114.13721      114.13608      192.29442    
    165900   105.41863      3.8041214     -96496.267      2504535.4      114.12935      114.12822      192.28118    
    166000   103.33104      53.73323      -96524.511      2504005.2      114.1213       114.12016      192.26762    
    166100   101.75882     -75.963795     -96552.424      2504270.1      114.12532      114.12419      192.27439    
    166200   99.959677      44.68297      -96581.979      2503292.2      114.11046      114.10933      192.24936    
    166300   97.982273      41.500069     -96611.926      2502999.4      114.10602      114.10488      192.24187    
    166400   95.579476     -81.372323     -96640.985      2503388.7      114.11193      114.1108       192.25183    
    166500   93.685031      53.649817     -96669.552      2502422.3      114.09725      114.09611      192.22709    
    166600   92.036278      16.903215     -96698.682      2502231.5      114.09435      114.09321      192.22221    
    166700   89.393054     -57.128676     -96727.019      2502351.8      114.09617      114.09504      192.22529    
    166800   87.766781      54.657025     -96754.882      2501507.6      114.08334      114.08221      192.20367    
    166900   86.05469       1.0634264     -96783.378      2501514.2      114.08344      114.08231      192.20384    
    167000   83.719891     -40.442836     -96811.951      2501567.8      114.08426      114.08312      192.20521    
    167100   81.850055      46.75562      -96839.915      2500916.1      114.07435      114.07322      192.18852    
    167200   79.980071     -15.381085     -96867.984      2500978.9      114.0753       114.07417      192.19013    
    167300   78.086955     -21.950285     -96896.401      2500789.9      114.07243      114.0713       192.18529    
    167400   76.410427      39.217004     -96925.392      2500198.7      114.06344      114.06231      192.17014    
    167500   74.160803     -19.698692     -96954.583      2500209.2      114.0636       114.06247      192.17041    
    167600   72.117571     -12.734647     -96982.857      2499876        114.05853      114.0574       192.16187    
    167700   70.052583      45.250659     -97011.281      2499333        114.05027      114.04914      192.14796    
    167800   68.385487     -28.699103     -97038.94       2499495.8      114.05275      114.05162      192.15213    
    167900   66.334744     -2.3407642     -97067.332      2499226        114.04865      114.04751      192.14522    
    168000   64.555973      31.409083     -97095.879      2498857.8      114.04305      114.04191      192.13578    
    168100   62.329258     -31.514551     -97123.772      2498997.7      114.04517      114.04404      192.13937    
    168200   60.592283      2.9592363     -97152.06       2498567.4      114.03863      114.03749      192.12834    
    168300   58.607585      31.753808     -97180.083      2498175.1      114.03266      114.03152      192.11828    
    168400   56.668316     -39.465797     -97208.13       2498265.3      114.03403      114.0329       192.12059    
    168500   54.749066      24.794639     -97236.21       2497710.4      114.02559      114.02446      192.10637    
    168600   52.671311      19.044077     -97263.98       2497550.8      114.02316      114.02203      192.10227    
    168700   50.864394     -45.398861     -97291.035      2497670        114.02497      114.02384      192.10533    
    168800   49.143859      35.444224     -97319.355      2497032.9      114.01528      114.01414      192.089      
    168900   47.046356      8.7462265     -97347.202      2496949        114.014        114.01287      192.08684    
    169000   45.312675     -46.003874     -97374.636      2496965.4      114.01425      114.01312      192.08727    
    169100   43.12851       56.928871     -97402.659      2496258.2      114.00348      114.00235      192.06913    
    169200   41.50602      -21.515736     -97429.596      2496415.1      114.00587      114.00474      192.07315    
    169300   39.452327     -23.686577     -97457.043      2496245.5      114.00329      114.00216      192.0688     
    169400   37.576454      50.57956      -97484.377      2495648.3      113.9942       113.99307      192.05348    
    169500   35.787793     -41.152962     -97510.962      2495827.7      113.99693      113.9958       192.05809    
    169600   34.042208      1.7053518     -97538.729      2495318.4      113.98918      113.98804      192.04502    
    169700   31.774951      50.753723     -97565.778      2494845.7      113.98198      113.98084      192.03289    
    169800   30.158395     -67.140803     -97591.892      2495136.2      113.9864       113.98527      192.04035    
    169900   28.317051      37.891671     -97619.16       2494349.6      113.97442      113.97329      192.02016    
    170000   26.526728      27.503121     -97645.789      2494142.6      113.97127      113.97014      192.01485    
    170100   24.585921     -67.568368     -97671.888      2494372.1      113.97477      113.97363      192.02074    
    170200   22.784741      56.056478     -97698.63       2493496.1      113.96142      113.96029      191.99826    
    170300   20.997262      4.5067044     -97724.829      2493489.1      113.96131      113.96018      191.99808    
    170400   19.164198     -54.291645     -97750.782      2493554        113.9623       113.96117      191.99975    
    170500   17.334171      67.172082     -97777.436      2492743.6      113.94996      113.94882      191.97894    
    170600   15.487232     -23.931423     -97803.232      2492979.1      113.95354      113.95241      191.98499    
    170700   13.628125     -36.568145     -97829.481      2492817        113.95108      113.94994      191.98083    
    170800   11.794259      70.449227     -97856.727      2492048        113.93936      113.93822      191.96109    
    170900   9.7545739     -46.189244     -97884.55       2492381.9      113.94445      113.94331      191.96966    
    171000   7.2954029     -14.680945     -97917.061      2491959.3      113.938        113.93687      191.95881    
    171033   5.8788054      31.950344     -97932.91       2491618.7      113.93281      113.93168      191.95006    
Loop time of 493.98 on 32 procs for 50000 steps with 55296 atoms

Performance: 4.373 ns/day, 5.489 hours/ns, 101.219 timesteps/s, 5.597 Matom-step/s
99.9% CPU use with 32 MPI tasks x 1 OpenMP threads

MPI task timing breakdown:
Section |  min time  |  avg time  |  max time  |%varavg| %total
---------------------------------------------------------------
Pair    | 25.555     | 214.42     | 452.89     |1033.0 | 43.41
Bond    | 0.0023827  | 0.0049617  | 0.0081321  |   2.3 |  0.00
Neigh   | 0.12602    | 1.0392     | 2.1415     |  73.0 |  0.21
Comm    | 17.979     | 250.47     | 439.58     | 929.3 | 50.71
Output  | 1.2136     | 3.1919     | 5.2043     |  65.8 |  0.65
Modify  | 12.897     | 22.639     | 42.648     | 182.0 |  4.58
Other   |            | 2.213      |            |       |  0.45

Nlocal:           1728 ave        3301 max         312 min
Histogram: 8 1 7 0 0 0 7 1 0 8
Nghost:        4855.72 ave        6875 max        2859 min
Histogram: 15 1 0 0 0 0 0 0 0 16
Neighs:         314416 ave      639744 max       35682 min
Histogram: 8 4 4 0 0 1 5 2 1 7

Total # of neighbors = 10061299
Ave neighs/atom = 181.95347
Ave special neighs/atom = 0
Neighbor list builds = 129
Dangerous builds = 0
Generated 0 of 0 mixed pair_coeff terms from geometric mixing rule
Setting up cg style minimization ...
  Unit style    : metal
  Current step  : 171033
Per MPI rank memory allocation (min/avg/max) = 8.736 | 10.11 | 12.08 Mbytes
   Step          Temp          Press          TotEng         Volume           Lx             Ly             Lz      
    171033   5.8788054      31.950344     -97932.91       2491618.7      113.93281      113.93168      191.95006    
    171047   5.8788054     -98.551435     -97985.205      2491618.7      113.93281      113.93168      191.95006    
Loop time of 0.520852 on 32 procs for 14 steps with 55296 atoms

98.8% CPU use with 32 MPI tasks x 1 OpenMP threads

Minimization stats:
  Stopping criterion = energy tolerance
  Energy initial, next-to-last, final = 
     -97974.9288011365  -98027.1269110623  -98027.2236252462
  Force two-norm initial, final = 33.576136 1.4262891
  Force max component initial, final = 0.42973523 0.24160786
  Final line search alpha, max atom move = 0.30773691 0.074351656
  Iterations, force evaluations = 14 28

MPI task timing breakdown:
Section |  min time  |  avg time  |  max time  |%varavg| %total
---------------------------------------------------------------
Pair    | 0.021487   | 0.17662    | 0.36369    |  29.4 | 33.91
Bond    | 1.723e-06  | 2.9382e-06 | 4.784e-06  |   0.0 |  0.00
Neigh   | 0          | 0          | 0          |   0.0 |  0.00
Comm    | 0.005439   | 0.18789    | 0.33978    |  27.9 | 36.07
Output  | 0.029085   | 0.083017   | 0.13738    |  11.1 | 15.94
Modify  | 0          | 0          | 0          |   0.0 |  0.00
Other   |            | 0.07332    |            |       | 14.08

Nlocal:           1728 ave        3299 max         311 min
Histogram: 8 1 7 0 0 0 7 1 0 8
Nghost:        4859.12 ave        6874 max        2858 min
Histogram: 15 1 0 0 0 0 0 0 0 16
Neighs:         315108 ave      642319 max       35956 min
Histogram: 8 4 4 0 0 1 5 2 1 7

Total # of neighbors = 10083462
Ave neighs/atom = 182.35428
Ave special neighs/atom = 0
Neighbor list builds = 0
Dangerous builds = 0
Total wall time: 0:26:26
